Li  C 
 1.0000000000000000
    14.1800999999999995    0.0000000000000000    0.0000000000000000
     0.0000000000000000   14.1800999999999995    0.0000000000000000
     0.0000000000000000    0.0000000000000000   14.1800999999999995
 Li  C  
  32 196
Cartesian
  7.7026303199999999 13.7018052270000013  4.6773059849999994
  5.9735089260000001 11.2428340860000020  7.0217019179999998
  6.7742591730000008  2.9247874260000004 12.3528523139999997
 13.2650581469999995 11.8846254120000001  4.3223780819999993
  8.4999773429999994 10.7268202469999991 10.9990781669999986
  2.3394328979999996 14.0953030019999996 10.8080722199999997
 12.4115579279999988  8.6919758970000007  5.4141039809999993
  1.0949873219999999  8.1732678389999993  3.8605322249999996
 10.7487994019999995  0.3425912160000000  3.2218605210000004
 11.4346908389999999  1.9392704759999999 11.8025226330000006
  4.1281107119999998  0.0829535850000000  8.1317201459999993
 10.5409191359999994  7.4495155349999997  1.4336081100000000
  8.9900415989999996  0.4842504150000000 13.1921724330000014
  7.1066407169999994  7.8132351000000000 12.2352992850000017
  7.7664407699999991  2.8723210559999997  5.9742179310000001
  1.5386826509999998  5.4939379439999998 13.0804332450000018
 12.6096539250000017  9.7634242530000002 10.5579352560000004
  7.0380090330000007  2.3178791459999997  2.8629621899999997
 12.0607422539999991  1.2600436860000002  6.1948602869999991
  6.0051305489999995  7.2787871310000005  9.0059233109999983
  1.2763508010000000 10.6143720539999986  7.2898476090000006
  3.9782270550000001  4.1637027629999999  3.4161278909999999
 10.0047695549999993 11.5811712719999989  5.2036712969999996
  0.7688450219999999 12.8117203499999999 12.9762095100000021
 12.4955041200000014  4.2527537909999999  9.7086890669999999
  0.8886668670000000  0.8086911029999999  2.5369616910000001
  4.3971072089999996  9.5960990729999995 10.6550689409999997
  0.4917658680000000  9.6468638309999992 13.7559732090000004
  8.2881266489999987 13.9985947199999998  8.3876709509999987
  1.1331317909999998  3.0050467919999999  8.8852506600000005
  4.9512655169999995  0.9038395740000000  4.9909697970000000
  9.7000392059999996  7.0353148140000012  7.1403893550000008
 14.0967210120000015  0.4773021660000000  0.3590401320000000
  3.3297710819999997  1.0108993290000003  3.1149425669999999
  4.5440130449999998  7.7231914649999993  7.0588537799999997
  8.8783024109999999  7.1773994160000001  4.8283240500000000
  6.3746639549999999  8.5408160310000021  5.0440033710000014
  4.5335197709999999  0.1925657580000000 12.6797036189999996
  9.4065111359999989  4.7747232720000001  6.4349293800000007
  6.0984356069999999  3.2849619660000005  9.0391047449999995
  4.4861582369999997  9.0738459900000024  6.5723345489999998
  0.3118203990000000  6.3280114260000007  2.1628906529999998
  3.6187615199999996  6.0585895260000004  8.7346579979999994
  2.9721489600000006 13.7267622029999981  5.0739233820000003
  2.6221840919999999 10.5705555450000013  0.9848079449999999
  0.0625342410000000  3.3745801979999999  4.3768296659999999
  3.1912315049999997  8.4241138080000013  8.9077970190000002
  5.2796766329999993  1.7379130560000002 10.8421044599999981
  1.5819319560000000  3.8768393399999996 11.1953307510000002
  2.4279167220000000  8.1952469939999997 10.0612063529999993
  4.7396984249999994 13.1839479749999988 13.4640049499999996
  7.6263413819999988  1.5883130009999999  9.9920074650000004
  7.8727915199999998  0.8142213420000000  1.2121149480000000
  8.6928267030000015  8.4710499389999985  4.2009964260000006
  1.4216968260000002  6.9926327129999999  1.5046504109999999
 12.1595775510000017  3.4151352839999998  7.2909820170000001
  6.9632799059999995  4.8741257729999994  7.2599275980000000
 12.3388140149999987  6.4377654000000000  3.4554067680000000
 10.9217966220000022  3.3562878690000000  7.9683653939999992
  5.0325174900000009  4.8206667959999994  0.4629802649999999
  7.2614874090000008 10.4145744449999995  3.6466963170000000
  3.7662345600000000 10.1265766139999993  7.2623382149999998
  1.4354515230000002  8.4330472709999995  1.4673567480000003
  8.7509651129999995  4.2139003169999993 13.8512634809999984
 10.4510173020000021  5.3009467829999997  5.4757874160000011
  5.0963279400000010 10.6662712199999987  4.7879107650000003
  2.6393420129999998  4.4061824730000003 10.3290684419999987
 12.2809592070000004  9.2950555499999989 13.0672457520000016
  1.0263556380000001  1.0606714800000003 13.7822063939999992
 13.3602066179999994  7.0642422179999995  2.6389166100000003
  5.2619515080000001  2.0446286190000000  1.2206230080000000
  4.4490063750000006  0.2009320170000000  2.7283930409999999
  3.0667302270000003  2.2217380680000001  2.3926082730000000
  6.3864334380000010  2.7210193889999998  0.5786898810000000
  9.9300404279999999  4.9410558449999993 13.4064337440000010
  1.9535923769999999 11.8576832219999986  9.6767838420000007
  8.3838423239999997 11.1262736639999993  3.0772235010000002
 14.1096249029999985  0.2611974420000000 10.1190611609999994
  0.2874306270000000  9.1770771179999997  1.9205527440000001
  2.2912205580000000  0.4105138950000000 13.7242097849999993
 13.6446594239999985  3.1313914829999998  5.6270890830000004
  3.2351898149999996  9.8144726129999995  8.5749900720000003
  6.2449160399999997  6.9888040860000000  0.2111416890000000
 12.1866615420000013  9.2237296469999990  2.9074877039999998
  1.8744674189999999  0.4785783750000000  7.1128799610000000
  3.5565108809999995 11.3891727179999993  6.6341597849999996
  1.4415489660000000 11.3104731630000011  1.3102412399999999
  0.6839062230000001  6.9940507230000009 11.1500962319999992
  2.6264381219999997  0.7238941050000000  4.3606643519999997
  2.6230348979999998  9.1345368179999991  1.0540068329999999
 12.2270748269999991  4.5909491759999996 12.2350156829999985
  4.1266927019999997 11.5918063470000021  5.3026483950000003
 13.1072336340000000 12.6763003950000019  1.5609454079999998
  6.0370357739999996 11.1262736639999993  3.7957291679999994
  0.7756514699999999  2.1650176680000000 12.9063016170000022
  9.2030267009999989  0.2637498599999999  1.3516471320000001
  3.6834227759999996 12.6202889999999996  0.0701914950000000
 11.0599107959999987  8.5375546079999989  3.4914242219999996
  3.7373071560000000  7.3712413830000001  8.1768128640000004
  8.3017395450000002 12.4043260770000003 12.6086613179999993
  7.3871230949999998 10.5670105199999984 13.9746303510000018
 11.0933758319999995  7.2352542240000002 13.2266300759999993
 11.3050847250000022  2.9249292269999998 13.7925578669999993
  4.0277156039999999  2.4311781449999996 10.9322898959999986
  3.8012594069999994  8.4002912399999996  0.7197818760000001
  8.2277194229999999 12.4315518690000015  2.4847789229999999
 12.7704562589999995  0.8054296800000001  9.9754167479999989
 11.1295350869999989  2.3497843709999997  8.9660772300000016
  6.9400245419999997 13.0237128449999986  2.4337305630000006
 12.8097351360000005  1.0569846539999999  0.3115367970000000
  1.7952006599999999  2.6928009900000003 12.0047308589999986
  4.0305516240000001  2.7481033799999999  1.4475046080000000
  9.1702706700000007 14.0174542530000021 10.9403725529999996
  7.8095482740000000  6.5686477229999998  5.5950420570000006
  3.8740033199999999 12.7636498109999987  4.5396172139999997
 13.3326972239999986  8.4935962979999999  2.4671955990000001
 13.7481741540000009  4.4485809720000002  3.5867144939999998
  7.6976672850000005  2.1094316759999998  0.5826603090000000
 12.4333952819999993  3.7764442319999998  5.9631574530000000
  0.0009926070000000  2.2949073840000001  6.7103069219999991
  7.4717782920000007  6.3064576739999998 14.0957284049999991
  1.9318968239999998  2.9946953190000003  2.8163096610000000
  5.6863619010000006  5.5656892500000001  7.3445827950000000
  6.2772466680000001  4.1329319460000002  0.2301430230000000
 13.2349963350000017 11.3184140189999987  2.0395237829999999
  7.1612341019999999  3.7587191069999997  8.1597967439999994
  6.5595724590000009  7.2664504440000002  5.7025272149999999
 11.1804416460000002 14.0655247919999997 13.1371536450000015
 13.1762907209999991  2.4723004350000002  7.8268479959999997
  2.6540893169999999  4.8347050949999995  1.3092486330000002
  6.1317588420000000 11.2221311400000019 14.0024233469999988
 12.2377099019999989 10.7222826149999992 12.8400805500000015
  1.9544431830000000  9.4616717250000022 10.4922813929999990
  2.5816290060000004  6.2585289359999994  1.0666271219999999
  1.2180705900000000  2.6546565209999997  4.0331040419999997
 10.3480697759999991  0.9899127809999999  0.8727851550000000
  9.8926049640000002  9.2944883459999996 13.8556593119999985
  7.0195749030000005 13.0215858299999994 12.5637104009999998
  6.7403687339999996  0.1212398550000000  1.7858417940000000
 12.2628086789999990  7.0649512229999996 12.4489933920000002
 11.9017833329999991 13.5262555889999998 11.8481825549999993
 10.2946107989999991  0.5198424659999999 10.3299192479999995
 10.9824874499999989 11.3731492050000025 12.9937928340000024
  7.4573145900000002  9.1678600530000001  0.0883420230000000
  2.4606727530000003 10.5049016819999999  9.6019129140000015
 10.6668384239999998 12.5430074549999979  1.9720265069999998
  8.5223819010000010 11.2624026239999981 13.4403241829999995
  9.9236593829999986  6.3841646220000010 13.4624451389999997
  3.7716229979999998 11.2548871710000000  0.4900642560000000
  3.0516993210000001  2.0242092749999996 11.9288673239999987
  9.6725298119999987 10.5294332550000025  3.1078525170000000
  6.2386767960000000  8.4221285940000001  0.2841692040000000
  2.4755618580000003 13.3410634830000010  0.2682874920000000
 11.0962118519999997  8.6315686710000001 13.5554665949999986
 10.1608924559999991  6.5219951939999996  4.7353025940000002
  0.8798752049999999  0.8873906579999999  9.2837114699999983
  1.1762392949999998  1.4969931569999999  6.3346760729999998
  3.7917587400000001  6.9696609509999998  0.6812120039999999
 13.3209277409999984 11.4280261919999990 12.1686528150000015
 12.4915336920000009  1.8283820940000000  8.9752942949999994
  4.8393845279999992  3.9692935920000001  9.1212075240000026
  3.8124616859999998  3.5952225539999998 10.0932533790000001
  4.6812764130000000 13.1387134559999996  3.4114484579999997
  8.8756081919999996  2.8490656919999999  0.1260610890000000
  8.5093362090000007  3.2458248899999997  8.2915298730000000
  0.9282293460000001 12.0357852779999988 10.6973256389999989
 10.1820208049999987  2.2805854829999999  0.2661604770000000
  8.7043125840000002  8.4944471040000007 14.0814065040000020
  6.8003505570000007 14.1544340190000018 11.7124789979999999
 12.6924657090000004  5.8824726839999997 11.8376892810000012
  1.9134626939999999  6.9082611179999995 10.3907518769999996
  9.3629782289999994 13.1256677639999992  1.9192765349999998
  6.3243245999999997  2.1878476290000006  9.9415263090000003
 10.7319250830000019 12.7591121789999988 12.4746593729999997
 12.0940654890000001 10.6252907309999998  2.5578064380000001
  5.5418666820000002  0.6366864900000000 11.7497726609999997
  0.0818191770000000 13.3607738219999987  1.0171385730000000
  0.4570246230000000  4.9643112089999999  2.5692923189999997
  7.8700973009999995  0.4492255680000000 10.8482019029999996
  9.3870843989999990 12.8806356360000009 11.7873499259999992
 11.7510488700000018  4.7082186029999997  5.1326289960000002
  2.5623440700000000 13.6199860499999996  6.4167788519999993
  0.1661907720000000  8.2911044700000005 11.6758943399999993
  3.8723017079999997  4.1166248310000002  0.9889201739999999
  0.8505223980000000  9.5612160270000004 11.3799556530000014
  1.6640347350000000  1.6283008829999999  4.9446008700000004
 11.1370505399999988  4.1814278879999991 13.1140400819999989
  5.0133743549999998  9.1193641109999994  0.4646818770000000
  1.3713574710000003 12.7145866649999988  0.9655230090000000
  0.2454575310000000  4.4461703549999996 11.2835309729999995
 13.0628499210000015  8.2633114740000000 12.3742642650000008
 13.6388455829999984  2.6963460150000000 12.8899945020000004
 11.1763294169999998  7.1505990269999993  3.8927210519999997
  7.4171849070000002  9.1156772850000003  4.2409843079999998
  7.4807117549999989  4.8722823599999998 14.0428366319999984
  8.0467813469999996  5.3741160990000001  6.4017479460000004
 12.5543515349999986  5.1422714640000011  4.0051692449999994
  5.5478223239999993  6.7989325469999997  6.6111880229999995
 13.1365864409999986 12.7609555920000002 11.7042545399999991
  2.6288487389999999  5.7711588990000005  9.7759027409999995
  9.6172274220000027  3.8060806409999994  7.5351633390000003
  2.2003261169999999 12.7941370259999996  8.5771170869999995
  4.9826035380000002 10.5365233049999993  0.3038795430000000
  5.8680089820000001 12.3975196289999996  3.1634385090000006
 14.0083789890000023  5.8300063140000002 11.2744557090000015
  5.0044408919999999  6.2581035329999999  0.3973264020000000
  4.6734773579999995  5.1529065390000008  8.3292489389999993
  5.9719491150000001 12.5011761600000000 13.3777899419999997
  2.8167350640000000 12.4908246869999999  7.2647488319999995
  0.0029778210000000 13.1571475859999989 10.8269317530000002
 11.6493775529999990  0.1646309610000000 10.6078492079999993
  5.4535246589999993  0.7461568620000000  1.8303673080000000
  9.8269511010000006 10.6769062950000020 13.4995970009999997
 10.0322789489999984  1.6836032729999999  9.5474613299999991
  8.7226049130000014  7.0489277099999992 13.9184771549999997
  9.8063899559999985  9.1977800639999998  3.6454201079999997
  8.7179254799999999  2.1644504639999997  9.2449997970000002
  1.6260320670000001  4.2380064869999998  2.1672864839999999
  3.2992838669999998  0.8917864890000000 12.7981074540000019
 10.8245211359999995 11.2649550420000022  2.6390584109999997
  5.2808110409999998  9.3961596630000006  5.4173654040000008
 12.5993024520000017  2.2654127760000007 13.7850424139999994
  1.7021792040000001  0.0297782100000000  8.4839538300000008
  0.2950878810000000 10.6247235269999987  1.8407187810000001
 11.5806040680000013  0.1830650910000000  0.4514943840000000
 13.3675802700000013  3.7483676340000001 12.0038800529999996
 11.7938727720000021 13.2175548119999995  1.4215550250000000
  0.3770488590000000 10.9276104630000024 11.5462882260000015
