&CONTROL
   calculation      = 'nscf'
   wf_collect       = .true.
   outdir           = './'
   prefix           = 'Ca3C3N6'
   pseudo_dir       = './'
/
&SYSTEM
   nbnd             = 60
   ecutwfc          = 60
   nosym            = .true.
   nspin            = 1
   ntyp             = 3
   nat              = 12
   ibrav            = 0
/
&ELECTRONS
   startingpot      = 'file'
/
&IONS
/
&CELL
/

ATOMIC_SPECIES
Ca 40.078 Ca.pbe-spn.UPF
C 12.011 C.pbe-n.UPF
N 14.007 N.pbe-n.UPF

K_POINTS automatic
13 13 3  0 0 0

CELL_PARAMETERS angstrom
3.69700000000000 0.00000000000000 0.00000000000000
-1.84850000000000 3.20169591779107 0.00000000000000
0.00000000000000 0.00000000000000 14.76700000000000

ATOMIC_POSITIONS crystal
Ca 0.0000000000 0.0000000000 0.0000000000 
Ca 0.6666666667 0.3333333333 0.3333333333 
Ca 0.3333333333 0.6666666667 0.6666666667 
C 0.0000000000 0.0000000000 0.5000000000 
C 0.6666666667 0.3333333333 0.8333333333 
C 0.3333333333 0.6666666667 0.1666666667 
N 0.0000000000 0.0000000000 0.5838000000 
N 0.0000000000 0.0000000000 0.4162000000 
N 0.6666666667 0.3333333333 0.9171333333 
N 0.6666666667 0.3333333333 0.7495333333 
N 0.3333333333 0.6666666667 0.2504666667 
N 0.3333333333 0.6666666667 0.0828666667 

