&control
    prefix =     'gaas',
    pseudo_dir='./'
    outdir = './', wf_collect = .true.
 /
 &system    
    ibrav=  2, celldm(1) =10.683, nat=  2, ntyp= 2,
    ecutwfc = 33.0, nbnd = 13, 
    nosym = .TRUE., noinv = .TRUE.
    occupations = 'tetrahedra'
 /
 &electrons
 /
ATOMIC_SPECIES
 Ga 69.72 Ga.pbe-dn-kjpaw_psl.0.2.UPF
 As 74.92 As.pbe-n-kjpaw_psl.0.2.UPF
ATOMIC_POSITIONS
 Ga 0.00 0.00 0.00 
 As 0.25 0.25 0.25 
K_POINTS {automatic}
 7 7 7 0 0 0
