Na 
 1.0000000000000000
     2.7839999999999998    0.0000000000000000    0.0000000000000000
    -1.3919999999999992    2.4110147241358773    0.0000000000000000
     0.0000000000000000    0.0000000000000000    3.8730000000000002
 Na 
   4
Cartesian
  0.0000000000000000  0.0000000000000000  0.0000000000000000
  0.0000000000000000  0.0000000000000000  1.9365000000000001
  1.3920013920000001  0.8036707710403843  0.9682500000000001
 -0.0000013919999996  1.6073439530954929  2.9047499999999999
