 &control
    calculation = 'scf'
    restart_mode='from_scratch',
     prefix='cnt',
     pseudo_dir = './'
     outdir='./'
     wf_collect = .true.
 /
 &system    
    ibrav = 6,
    a = 15.0, c = 4.26990
    nat = 32,
    ntyp = 1,
    ecutwfc = 40,
    nbnd = 128,
    occupations = 'smearing', degauss = 0.02, smearing = 'cold'
    nosym = .TRUE., noinv = .TRUE.
 /
 &electrons
    mixing_beta = 0.7 
    conv_thr =  1.0d-8
    electron_maxstep = 200
 /
ATOMIC_SPECIES
 C 12.011 C.pbesol-n-kjpaw_psl.0.1.UPF
ATOMIC_POSITIONS {crystal}
C 0.6484 0.3516 0
C 0.7099 0.5 0
C 0.5 0.2901 0
C 0.3516 0.3516 0
C 0.5 0.7099 0
C 0.6484 0.6484 0
C 0.2901 0.5 0
C 0.3516 0.6484 0
C 0.5 0.7099 0.3328
C 0.6484 0.6484 0.3328
C 0.7099 0.5 0.3328
C 0.6484 0.3516 0.3328
C 0.3516 0.6484 0.3328
C 0.5 0.2901 0.3328
C 0.3516 0.3516 0.3328
C 0.2901 0.5 0.3328
C 0.3061 0.5803 0.5
C 0.5803 0.6939 0.5
C 0.4197 0.6939 0.5
C 0.3061 0.4197 0.5
C 0.6939 0.4197 0.5
C 0.5803 0.3061 0.5
C 0.6939 0.5803 0.5
C 0.4197 0.3061 0.5
C 0.3061 0.5803 0.8328
C 0.4197 0.3061 0.8328
C 0.5803 0.3061 0.8328
C 0.5803 0.6939 0.8328
C 0.4197 0.6939 0.8328
C 0.6939 0.5803 0.8328
C 0.6939 0.4197 0.8328
C 0.3061 0.4197 0.8328
K_POINTS {automatic} 
 1 1 9 0 0 0
