&control
    prefix =     'diamond',
    pseudo_dir='./'
    outdir = './', wf_collect = .true.
 /
 &system    
    ibrav=  2, celldm(1) =6.746, nat=  2, ntyp= 1,
    nbnd = 8,
    ecutwfc = 40.0, 
    nosym = .TRUE., noinv = .TRUE.
    occupations = 'tetrahedra'
 /
 &electrons
 /
ATOMIC_SPECIES
 C 12.011 C.pbe-n-kjpaw_psl.0.1.UPF
ATOMIC_POSITIONS 
 C 0.00 0.00 0.00 
 C 0.25 0.25 0.25 
K_POINTS {automatic}
 7 7 7 0 0 0
