C2
1.0
     -1.7849147       0.0000000       1.7849147
      0.0000000       1.7849147       1.7849147
     -1.7849147       1.7849147       0.0000000
  C   
  2   
Direct
      0.0000000       0.0000000       0.0000000
     -0.2500000       0.7500000      -0.2500000
