Zn4S4
1.0
      5.4109000       0.0000000       0.0000000
      0.0000000       5.4109000       0.0000000
      0.0000000       0.0000000       5.4109000
  Zn    S   
  4     4   
Direct
      0.0000000       0.0000000       0.0000000
      0.0000000       0.5000000       0.5000000
      0.5000000       0.0000000       0.5000000
      0.5000000       0.5000000       0.0000000
      0.7500000       0.7500000       0.2500000
      0.7500000       0.2500000       0.7500000
      0.2500000       0.7500000       0.7500000
      0.2500000       0.2500000       0.2500000
