Li  C 
 1.0000000000000000
    14.1800999999999995    0.0000000000000000    0.0000000000000000
     0.0000000000000000   14.1800999999999995    0.0000000000000000
     0.0000000000000000    0.0000000000000000   14.1800999999999995
 Li  C  
  28 196
Cartesian
 12.3592333589999992  2.5511417909999996  2.3462393459999999
  6.3868588410000005  7.2667340459999998  9.2028849000000008
 14.0320597559999989  2.9883142739999999  9.9595350360000001
 10.7842496520000015  8.2250252039999996 11.1075559320000021
 13.6596903300000001  0.0901854360000000  7.5123333780000001
  7.6128702869999989  7.9988526089999992  1.9901770349999999
  4.0567848089999998 12.4860034530000021 10.2028655520000004
  9.2468432099999998 11.0260203570000002 11.0694114629999998
 13.8933783780000013  9.8252494889999991  3.6438602969999994
  2.2722192239999996  2.4114678059999997  8.6641829010000002
  9.9423771150000011  9.4489096349999997  8.0754251490000009
  4.0820253869999998  7.8869716199999997  5.2246578449999994
  7.6968164789999998  2.9042262809999997  5.9350808549999998
  0.0182923290000000  6.9312328799999996 13.6011265169999991
  6.8397712349999997 12.6197217959999985  0.4349036670000000
 12.5725020629999999 10.9023698850000024  6.6582659550000001
 12.6628293000000021 11.6373244679999992  9.9213905669999995
 10.7415675509999993 14.0653829909999981  8.5181278709999990
  1.2638723130000002  9.3201543269999991  8.2413323189999996
 11.4576626009999991  2.1872804250000000 12.1736158500000009
  4.8399517320000012  3.6994462889999999  6.6779762940000005
 10.1757815609999991  5.7452093160000013  8.1614983559999992
 10.0307191380000020 12.5098260210000003  4.3296099329999995
  9.2190502140000028  2.3486499629999997  3.0505649129999997
  9.0216632219999990  0.9520519140000000 13.4479814370000010
 12.1780116809999992  6.7427793509999994  5.4977665709999997
  1.9361508539999999  0.2094400770000000  1.5463399050000000
  5.2283446709999994  0.9632541930000000  4.9706922540000011
 14.0609871599999998  0.3543606989999999  0.2643170640000000
  3.3836554619999997  1.0191237870000001  3.2678040449999997
  4.8086137110000013  8.0402585010000003  7.5147439949999999
  8.7370686150000001  7.0768625069999995  4.6272502319999997
  6.4587519479999997  8.7261499380000025  5.3006631809999991
  4.1888015400000009 14.1330220679999989 12.0522341940000022
  9.2240132490000022  4.6890754679999995  6.2064879690000012
  5.9138107049999995  3.3354431220000000  8.8970201430000007
  4.7720290529999998  9.4053767280000002  7.0470842970000005
  0.1768258470000000  6.0780162630000003  1.8936105539999999
  3.6753401189999995  6.3186525599999994  9.0081921269999992
  3.1427355630000000 13.9077002790000002  5.3453304959999999
  2.2895189459999998 10.2446968469999984  0.2172391320000000
 14.1059380769999994  3.2005903709999997  4.2300656310000013
  3.3728785859999997  8.7122534400000013  9.3208633320000001
  5.0376223260000002  1.7030300100000002 10.5271644390000017
  1.5406678649999999  4.0431719130000010 11.3619469259999999
  2.3584342320000005  8.4275170319999990 10.2632727779999993
  4.3513054860000002 12.8556786599999988 12.6504926129999991
  7.4422836839999995  1.7096946569999998  9.9062178599999999
  7.9713432150000001  0.8973167280000001  1.5498849300000002
  8.6016486600000004  8.3937683940000003  4.0654346700000001
  1.3098158370000001  6.7556832419999999  1.2889710900000000
 11.9407786080000005  3.3121877579999999  7.0696306560000002
  6.8420400509999997  4.9382198250000000  7.1785338240000005
 12.1168954499999995  6.1734483359999999  3.0494305049999997
 10.7295144659999995  3.3228228330000000  7.7806208699999990
  5.0777520090000001  4.7639463959999997  0.6454781519999999
  7.2867279870000008 10.4737054619999999  3.7733246100000000
  4.0124010959999996 10.4392478190000020  7.7016377129999993
  1.2406169489999999  8.1617819579999988  1.0457823749999999
  8.8663911270000018  4.3517308889999997  0.2053278480000000
 10.2393084089999995  5.1289421700000002  5.1713406690000001
  5.3053426140000006 10.9044968999999998  5.1842445600000007
  2.5508581890000004  4.5827247180000006 10.4369790029999994
 12.0108283020000020  9.4948531589999998 12.9267209609999991
  0.9364538040000000  0.9375882120000000 13.6187098409999994
 13.1629614270000008  6.7925515019999994  2.2576137209999998
  5.3505771329999998  2.0657569680000001  1.4482136129999998
  4.5038833619999998  0.2170973310000000  2.8984124400000004
  3.0864405659999998  2.1728167229999999  2.4788232810000004
  6.5035610639999994  2.7905018789999998  0.9524773169999998
 10.0145538240000000  5.0885288849999997 13.8817506960000010
  1.7842819829999998 12.0597496469999985  9.8022777269999999
  8.3705130299999997 11.0878455929999991  3.0583639680000001
 13.9364858819999995  0.4629802649999999 10.2166202490000000
  0.0564367980000000  8.8869522720000003  1.3944710340000002
  2.0514350669999999  0.1663325730000000 13.2415191809999993
 13.4659901640000008  2.9921429009999998  5.4662867490000009
  3.3981191639999997 10.1089932899999990  8.9717492700000001
  6.1690525050000007  6.9442785720000000  0.2092982760000000
 11.9572275239999986  8.9429636669999990  2.3829658050000000
  1.8354721439999999  0.6359774850000000  7.2366722340000003
  3.7836760830000000 11.6841187980000001  7.0313443859999998
  1.1403636420000001 10.9817784450000016  0.5762792640000001
  0.5405454119999999  7.1978187600000005 11.2085182440000022
  2.7027270600000000  0.8041534710000000  4.5298329449999999
  2.3682185009999999  8.8530618329999999  0.4980051120000000
 12.2982589289999993  4.7761412820000011 12.6957271320000018
  4.3741354470000013 11.8439285250000026  5.7175581209999997
 13.0149211830000002 12.4759355820000000  1.2973373490000000
  6.1333186529999999 11.2487897280000002  4.0677034860000001
  0.7650163950000001  2.2045801469999997 12.9832995599999990
  9.2854130819999998  0.3279857130000000  1.6671543569999998
  3.2851037670000003 12.2449417529999991 13.3741031159999988
 10.8483437039999995  8.2762153650000005  3.0297201659999997
  3.9697189949999996  7.6668964680000000  8.6190901829999991
  8.0782611689999992 12.5312379719999996 12.4801896120000020
  7.1072079210000005 10.5030582689999985 13.5557501970000001
 10.9765318079999989  7.4068334340000002 13.3559525880000010
 11.4373850579999985  3.0931052130000003  0.1026639240000000
  3.8127452879999999  2.4362829809999997 10.7191629929999994
  3.6004691910000002  8.1814922970000019  0.3155072249999999
  8.2492731749999990 12.4187897789999990  2.5491565770000006
 12.5985934469999989  1.0195491900000000 10.0521310889999995
 10.9410815580000005  2.4456418470000001  8.8797204210000000
  6.9880950810000000 13.0530656519999990  2.6057351760000000
 12.8680153470000018  1.0701721469999999  0.5192752620000000
  1.7133814830000000  2.7537754200000006 12.0207543720000007
  4.0871302230000008  2.7065556870000003  1.5789541350000003
  9.0053561070000008  0.1878863250000000 11.1360579330000000
  7.7071679519999998  6.5807008079999996  5.5181859150000001
  4.0665690779999997 12.9484165139999980  4.8712897530000010
 13.1072336340000000  8.2009190340000000  1.9798255619999998
 13.6076493629999984  4.2367302779999996  3.3653631330000007
  7.8170637269999999  2.2388959890000000  1.0527306240000001
 12.2245224090000022  3.6111042659999999  5.7357086490000011
 14.0133420240000017  2.2700922090000000  6.6209722919999994
  7.4594416050000003  6.3434677349999999  0.1161350190000000
  1.8981481860000000  2.8686342300000001  2.7970247250000000
  5.6432543969999998  5.7473363309999996  7.4675242619999995
  6.3726787410000005  4.1564709119999996  0.5775554730000000
 13.0790152350000017 11.0638812240000011  1.6026349020000001
  6.9872442750000001  3.7940275560000001  8.0534459940000005
  6.5892088679999992  7.4173267079999992  5.8609189319999997
 11.0695532639999996  0.1267700940000000 13.3692818819999992
 12.9672760470000004  2.4564187229999996  7.6850469959999996
  2.6513950980000001  4.6855304430000002  1.3218689219999999
  5.7983846910000008 10.9902865050000020 13.3090164570000020
 11.9875729379999996 10.9168335870000011 12.7886067870000009
  1.7730797040000001  9.6786272550000003 10.6024607700000022
  2.5307224469999996  6.0612837450000008  0.9901963830000000
  1.1336989949999998  2.5307224469999996  3.9778016519999997
 10.4695932329999994  1.0878972720000002  1.3005987719999998
  9.6715372049999999  9.4482006300000005 13.8078723749999988
  6.7539816300000002 12.9461476979999990 12.1279559280000022
  6.8115528359999997  0.1673251800000000  2.0084693639999998
 12.1476662670000000  7.2312837959999996 12.5722184610000021
 11.7463694370000002 13.8090067829999992 12.0437261340000017
 10.1294126339999995  0.8862562500000000 10.5729661619999984
 10.7453961780000000 11.5864179090000015 13.0452665970000012
  7.2348288210000007  9.1567995750000026 14.0082371879999990
  2.3799879839999996 10.7446871729999991  9.8157488219999998
 10.6679728320000002 12.4740921689999986  1.9907442389999996
  8.2523927969999988 11.3289072930000021 13.2664761569999996
  9.9023892329999992  6.5140543380000011 13.7459053380000018
  3.3931561289999999 10.9022280839999990 13.7973791010000024
  2.8584245579999998  1.9723101089999997 11.6943284699999985
  9.6054579390000026 10.3958567129999988  2.9279070479999998
  6.0588731280000001  8.3476830690000003  0.0146055030000000
  2.1443147219999998 12.9947854410000012 13.7056338539999985
 10.8866299740000017  8.8191713939999996 13.5082468620000018
  9.9496089660000013  6.3307056450000010  4.3783894769999998
  0.6986535269999999  1.0386923250000002  9.3367450440000024
  1.0964053320000002  1.5595273980000000  6.3657304920000000
  3.6968938709999999  6.7895736810000011  0.5541583079999999
 13.0848290760000019 11.6211591540000025 12.1841091239999990
 12.2969827199999990  1.9001334000000001  8.8992889589999997
  4.6541924220000004  4.0606134359999997  9.0494562179999996
  3.6573313919999997  3.7090887570000004 10.0580867309999995
  4.7792609040000000 13.2120245730000008  3.6593166060000000
  9.0060651119999999  3.0153982650000000  0.6844734270000001
  8.3343537750000021  3.2825513489999998  8.1891495510000016
  0.6883020540000001 12.2214027870000006 10.7478067949999989
 10.3238218050000015  2.4367083839999997  0.7847267339999999
  8.5361365979999988  8.5891701719999993 14.0320597559999989
  6.5565946380000000 14.1239468039999991 11.3574092940000018
 12.6553138469999986  6.0212958629999997 12.0949162949999991
  1.8390171689999999  7.1291870759999991 10.5336872849999992
  9.3981448770000000 13.1268021720000014  2.0443450170000004
  6.1221163740000000  2.2125210030000000  9.7449901229999991
 10.5395011259999993 13.0428559799999988 12.6675087329999982
 11.9438982300000003 10.3701907319999993  2.1573604139999998
  5.2440845819999993  0.5019755400000000 11.2543199669999989
 14.1318876600000021 13.1438182919999988  0.6586656449999999
  0.3598909380000000  4.7513261069999997  2.3765847600000001
  7.6809347669999992  0.6176851560000000 10.7963027369999995
  9.2043029099999991 13.2505944449999991 12.0021784410000016
 11.5289885039999991  4.4857328340000011  4.8271896419999996
  2.7035778659999998 13.8382177889999998  6.6687592290000000
 14.1345818789999988  8.4894840690000013 11.6449817219999989
  3.9105879780000001  4.0335294449999992  1.1054805960000003
  0.5880487470000000  9.7629988499999989 11.3574092940000018
  1.6413465750000000  1.6447497990000002  4.9848723540000002
 11.2476553199999998  4.3660527900000003 13.6130378009999990
  4.7706110429999997  8.9282163630000024 14.1480529739999987
  1.0883226749999999 12.3830559269999991  0.2894158410000000
  0.2762283480000000  4.6600062629999996 11.6591618219999997
 12.8515664309999984  8.4689229239999992 12.3366869999999995
 13.7128657049999987  2.8487820899999998 13.2304587030000000
 10.9376783339999992  6.8993276549999996  3.4511527380000007
  7.4205881310000006  9.1750919039999985  4.3325877539999995
  7.5608293199999999  4.9363764119999995  0.2716907160000000
  7.9032787349999998  5.3728398899999998  6.2783810759999996
 12.3602259660000016  4.9080162119999997  3.6893784180000000
  5.6405601780000012  7.0580029739999999  6.8850057539999998
 12.9606113999999994 12.9957780479999983 11.8348532609999992
  2.6201988780000005  5.9902414439999996  9.9793871760000012
  9.4276394850000003  3.7537560719999998  7.3475606159999991
  2.1746601360000000 13.0252726560000003  8.7830121390000020
  4.6505055959999995 10.2621383700000006 13.7287474169999992
  5.9364988649999999 12.4610464770000000  3.3752892030000003
 13.9506659820000021  5.9956298819999994 11.4776565420000001
  4.9719684629999996  6.1596936389999994  0.4339110600000000
  4.6259740230000013  5.3623466160000008  8.4475109730000018
  5.6283652919999998 12.2416803300000012 12.6459549809999992
  2.9564090489999999 12.7523057309999999  7.5626727329999994
 13.9985947199999998 13.3728269069999985 10.9403725529999996
 11.4841793879999994  0.4738989419999999 10.8077886180000000
  5.5279701840000000  0.7757932710000000  2.0318665289999998
  9.5850385950000003 10.8352980119999991 13.4730802139999994
  9.8649537689999995  1.9128954899999999  9.6071595509999987
  8.6589362639999994  7.1463449969999999 14.0679354090000022
  9.6787690559999984  9.0169837889999993  3.3300546839999998
  8.5467716730000003  2.3112144989999996  9.2315287020000003
  1.5847679760000002  4.0682706899999994  2.0917065510000001
  3.0186596880000001  0.7002133380000000 12.3178274670000025
 10.7473813919999994 11.0905398119999994  2.3982803129999999
  5.5064164320000009  9.6664323690000007  5.8353947520000009
 12.7002647640000017  2.3685021030000000 14.1388359089999991
  1.5893056079999999  0.2040516390000000  8.6142689489999995
  0.0402714840000000 10.3147465409999999  1.2097043310000002
 11.5930825559999988  0.2563762080000000  0.6677409089999999
 13.4603181239999987  3.9826228859999997 12.4647333029999992
 11.7942981750000015 13.1465125109999992  1.4389965480000000
  0.0933050580000000 11.1068469269999994 11.5213312499999994
