Titel of Simulation                     
   1.00000000000000     
    18.6246299999999998    0.0000000000000000    0.0000000000000000
     0.0000000000000000   18.6246299999999998    0.0000000000000000
     0.0000000000000000    0.0000000000000000   18.6246299999999998
   Ge   Te
   108   108
Direct
  0.6608395135668443  0.5489645043834107  0.2368104815867030
  0.0578903962823700  0.6031141816538433  0.6302303275250519
  0.9530117266330749  0.0879581890223153  0.2434799400072737
  0.3758226775517001  0.2990713861936879  0.3090372926822844
  0.7894378888031865  0.2017277453774534  0.3819461176937131
  0.6322801784700447  0.6544453649604829  0.4625968505106440
  0.5253524144895630  0.3819443900686194  0.3177439907511947
  0.5411894000779115  0.0518932567581154  0.6144881729828027
  0.7338033762169984  0.4952264498391149  0.6297516693690479
  0.7243115162808040  0.7201306841662679  0.7450024760158104
  0.1128774257964817  0.8206171011148147  0.4032615659095289
  0.5301843869581081  0.4028175565022764  0.5382119500319043
  0.5780361777138594  0.7509593897383116  0.6347654934518429
  0.6479553245484002  0.3059642558090297  0.5409172430209782
  0.1528959557442042  0.8002979873569708  0.8903804709610863
  0.8711059817521031  0.0640542676644739  0.3858945947783901
  0.0535971138111438  0.0196013058296942  0.9622334028806894
  0.2138980828779520  0.2059993914130655  0.6294994546094852
  0.3491213437244121  0.3447194775112226  0.8618039814287227
  0.6209972435914145  0.1877420465693271  0.2380060781482943
  0.4399870219668051  0.8841059920530839  0.5349687138241210
  0.2091794803376262  0.7780524280419264  0.5846014024201791
  0.5752708376190955  0.5660233530902469  0.7336472503985958
  0.9434600360707176  0.3817213629954599  0.0974326267534735
  0.3469813844188196  0.8268652143834805  0.9457082504023580
  0.3400689429198718  0.0041964509631461  0.7253782001983209
  0.5145565915262508  0.7104629223350916  0.1573616376457451
  0.1819046139067770  0.6694722878236153  0.2195517896809910
  0.9385278102477522  0.7002484280791507  0.3743093337773974
  0.0961423842629071  0.1885240918804410  0.1245479002486190
  0.4696303530447520  0.7942781533958558  0.3507196967953781
  0.0783122900683285  0.9483756385350942  0.4394553238556798
  0.6710257379953427  0.9217022909845113  0.5974984089208421
  0.6487049000069780  0.3972231334231630  0.6834947064017706
  0.9392003776196527  0.7974310610054736  0.5590192291032515
  0.7817844772193484  0.1518882633876416  0.1165707764415965
  0.0629901285675270  0.8803587779974528  0.8049310898425467
  0.9281451524549055  0.4493241172462567  0.5153464791214600
  0.4309867800831886  0.1818060510500115  0.0598152415671875
  0.6278725000240291  0.6609127028790769  0.0465859813955478
  0.7986779742365830  0.5079924019955174  0.3670335933327599
  0.0404834619348128  0.5214410728439058  0.1136089509863289
  0.6107362165834479  0.1354801191295166  0.4447063729693412
  0.6278342789844581  0.7603263588983741  0.8510972202169933
  0.3939051569236600  0.6121508287887153  0.8724983014985692
  0.4249942424425373  0.4381791435867011  0.7478652029771640
  0.1586274001661536  0.3391155514911232  0.3663392349059030
  0.8720349873729106  0.8527368352763901  0.4143449852143146
  0.4349734421172632  0.2258988479774405  0.5109724963417048
  0.9748731191632116  0.4996843295680070  0.2482271666758945
  0.7643777833532583  0.3179880748545627  0.6722088199843598
  0.7928873939323740  0.7423092698589826  0.5571617426112152
  0.5280323280763930  0.0023949502900099  0.2961895930454378
  0.1706453810962506  0.5863872741970785  0.4525008629083384
  0.5409616225793092  0.7830625678560684  0.9665161106506965
  0.0580958154048179  0.4150350606390901  0.7187146844912745
  0.8814892863753837  0.1747405513491169  0.6748842803600186
  0.7992417747116544  0.7882170494593262  0.9874892338915530
  0.5875387963071751  0.3671734213410536  0.1039617564859536
  0.2428513253485214  0.4684813725762159  0.6028145405262367
  0.5724138750691257  0.1681204691349983 -0.0009148973575600
  0.8525045921420953  0.5174510315810599  0.6893107354119135
  0.8283864388989594  0.5543361855729247  0.1331600078840837
  0.0180041417407563  0.8572412287437006  0.9637827039873845
  0.6969280525215162  0.5548978333867642  0.1045172795398093
  0.9338862914115172  0.2667265897107085  0.5188272857656816
  0.8969782117602032  0.5416713831178795  0.8163650330457013
  0.5355086062813207  0.5735387228841298  0.1827222595054979
  0.2424732780083360  0.9673989631635246  0.5146902409983074
  0.2574434762249440  0.3216508246411974  0.0582921047423692
  0.4801272174841265  0.1640875244571655  0.8651073226186952
  0.9114443441939465  0.1728837700473927  0.0408531780276804
  0.7259905920004237  0.3151909108317368  0.0624548163365453
  0.1130657121029193  0.8275379943504882  0.6799691739776439
  0.1342801138689514  0.4282002831407953  0.1779461240100820
  0.2377449981141321  0.7898866628525824  0.4506790993154798
  0.0541171061822861  0.8804619603978661  0.2040822434066048
  0.3970819802366748  0.3899420686612334  0.0910967102146275
  0.2807020579424864  0.5215383693869960  0.2777981568831114
  0.3019260921892566  0.1957906044321305  0.2474005818455506
  0.0823623232595615  0.1383008926144597  0.4728384250273201
  0.5904759316919148  0.3754424463380935  0.8973024424858822
  0.2158650434906750  0.9515933899580176  0.0913074111657760
  0.2353599609257608  0.4754329578639004  0.0609427619547101
  0.8272313758812300  0.6566613979816269  0.9464987721513449
  0.3980568730034763  0.3584371690633499  0.4991184797089365
  0.2162247328169160  0.5327492061871150  0.8484073100542086
  0.3572759012637269  0.6032984356419412  0.4920718829170463
  0.5964945804643922  0.9652096525346838  0.7817770258622188
  0.1899260631526959  0.0262781773356476  0.2080998681296561
  0.0176586519575505  0.0516444146842466  0.6863340783786535
  0.3126161275675111  0.7586564771192338  0.1118031740759373
  0.3919093232167695  0.6770946892590036  0.6338489729134386
  0.4321171033568392  0.0290796702459624  0.3966973687181646
  0.6864154744485013  0.9039778995386322  0.3758640716121045
  0.6997061058520698  0.9638920710613563  0.0078370804057130
  0.7411428778892608  0.6936585965679120  0.2695454968196823
  0.1163962569261675  0.6503484186763765  0.9897206047081714
  0.1278302248063611  0.0755274796031704  0.3561352281752181
  0.9575171450105324  0.2131674862224236  0.8508001248189764
  0.1396557317004719  0.2835035314737163  0.8208256981577209
  0.8556366843777947  0.3750570398569097  0.8266929595451312
  0.9073451896315327  0.0141783149958540  0.0471010614534780
  0.3131910590421545  0.1657275564793430  0.5371289038511189
  0.4698275216893266  0.5734853942456256  0.3925395478183203
  0.9258138803331776  0.0384193716528642  0.8567546129158097
  0.4886657144283797  0.9800186079814943  0.9862187455323687
  0.3098008464109960  0.7626550419206433  0.7944029288484499
  0.5710852503750818  0.8675530592988601  0.2706011254493220
  0.0564201942605456  0.7479486979673496  0.2926709898166622
  0.2614414703782398  0.8961801251948415  0.8499566150906392
  0.3934058376797355  0.7286211279553327  0.2383787627616495
  0.2681414958808095  0.1344538499875965  0.7499260251810788
  0.2888369688785098  0.2805414866232314  0.4300943102453769
  0.4738599764027954  0.0602054279581334  0.1720698736287693
  0.0367334840580263  0.3686995251752794  0.2687220055731523
  0.6079231411240087  0.0440278186750422  0.9232018006330980
  0.9207884204869685  0.5198102305318024  0.0279330706027629
  0.0497142590192916  0.1667228760477267  0.9719595548447386
  0.0247457483253055  0.2007897357035804  0.7178434691214706
  0.4967289723544156  0.6929741507063321  0.7475443508917119
  0.0965091729347322  0.4542361638341040  0.5718757153222259
  0.1333025668920177  0.8333239692834747  0.0828001673400936
  0.2781607569645199  0.6702098986311827  0.3840749846167952
  0.5062464735040920  0.5135337829390348  0.8544521300941361
  0.0165244261564339  0.3492706529558495  0.8710887424046008
  0.4789460648067697  0.1699586156602985  0.3826644076875820
  0.8665940269093527  0.0361265582728951  0.7208299495759919
  0.8635675903831267  0.3064305382367010  0.9944934145860652
  0.2470649158972437  0.2583753706791682  0.9227441220343183
  0.0899774473639310  0.2795027242327031  0.4938184349073225
  0.9218773676092402  0.8900077108748028  0.8397849054687843
  0.4815156973071306  0.5126818630613682  0.6259043862399417
  0.8894307697178910  0.3050503855796970  0.3863371310530947
  0.3645422173068865  0.0253312197112264  0.5802388314289346
  0.7717401388235033  0.6463800706111564  0.4075619458552987
  0.5483179022662873  0.2047457297868573  0.5964313713688908
  0.3865213165858481  0.0877973900865218  0.9477050167373383
  0.1333683189683242  0.5504978563345624  0.2929053146440014
  0.6585153584451877  0.0661608562583590  0.3151142972611302
  0.6542654420395430  0.2724563563044919  0.3966654665536057
  0.8593058488127352  0.6878810441582577  0.8058817498091213
  0.9651433789792264  0.9473055587827817  0.3444639500637167
  0.5141347190632999  0.4898920273071207  0.0660036766110390
  0.5604937976360692  0.6745135797040771  0.3328448980920971
  0.6845929708377445  0.6389894377122403  0.9134077609524039
  0.9022092357466862  0.8625509042688129  0.0591230388362554
  0.7061381579839074  0.7749007509825904  0.0996113480765489
  0.9425284197474129  0.1153589278831121  0.5082752925185900
  0.6747955769695115  0.2511822412730766  0.9387547219838658
  0.0173274416847355  0.9204798225238168  0.5687967378459329
  0.1716329836488196  0.7186108920863279  0.7693998493162012
  0.7136742097570039  0.4531913336648511  0.0050620959155698
  0.2808528610125524  0.1794978285642834  0.1063338091202905
  0.0388896855200343  0.7167474978134476  0.4860452039324092
  0.2701747461484800  0.3798256679918975  0.2323050446389678
  0.7635732831357988  0.2354414623928469  0.2370993910663556
  0.5374392670091213  0.8893070014540000  0.6638724677037231
  0.6404434551191872  0.1029481203507617  0.1139221525629287
  0.8065725198963816  0.0599645411866038  0.9473859173545494
  0.0663647652333013  0.6649428774936176  0.1243072839551403
  0.5799169705791536  0.8768474661348592  0.0694478687615786
  0.9972608454030257  0.7416414889899092  0.6850699657682690
  0.5820182227495709  0.4841628135810582  0.4283391661392529
  0.4714368453581089  0.8796145625767852  0.8790984454073575
  0.9590855436699626  0.2227184688690341  0.1736932889997553
  0.7716269950688732  0.2169788757811547  0.5701853100802455
  0.8054516874201320  0.2369002256951087  0.7889883216726256
  0.8747200538197821  0.6656133650283249  0.2093453411096677
  0.2619815309831076  0.0784874984189226  0.4210105475963655
  0.4758882331229977  0.2964466537081118  0.1775878971499312
  0.0978583807398826  0.0201406853119929  0.8100688790124152
  0.7101890211300055  0.4381199823395609  0.8110549491498209
  0.6913676305658308  0.6350565923340011  0.6214009683484760
  0.7915344269785799  0.8370646176808135  0.2899097074488382
  0.3458858877781541  0.0549498893999294  0.2595977667540028
  0.0386686001215761  0.5522556012772947  0.7729794897402138
  0.1574006172484356  0.2096974129434457  0.2835560842004287
  0.7752463928968355  0.4395167432149544  0.5018192372249822
  0.4441020666031780  0.4987212026045804  0.2676313833278978
  0.3304874615886667  0.3475049503972815  0.6265346712867487
  0.9165684646862193  0.5837216382340658  0.5796585787410351
  0.2235027529242810  0.6350245636121717  0.5922191586169581
  0.4791169736665754  0.0564797744133223  0.7590263072591150
  0.3520649904322437  0.9018970170131682  0.0756198187001488
  0.1831899345267026  0.8961454668620230  0.2743040361514227
  0.9451598621584196  0.5415147271942539  0.3870328632798627
  0.0501650161609467  0.0304589632683902  0.1443348842826683
  0.5323621178963013  0.3225226387806809  0.7686310438977282
  0.9000173134729950  0.3814953694302109  0.6765361011236856
  0.2028056420788549  0.4065823058626005  0.7660927508737140
  0.1461756066482515  0.0786360321206039  0.5898166071775527
  0.1123808872579357  0.5069126662662438  0.9792892251827485
  0.4334931506109952  0.7022099491715750  0.0327213286052537
  0.3948560288609650  0.2309142647332036  0.7650229235047362
  0.6706055252096840  0.7988754737677367  0.4864335310027917
  0.6465627232903638  0.4044700688264296  0.2345470478896627
  0.7244266134177553  0.8683055649824628  0.8925021736355034
  0.0090637397250442  0.7125113293881705  0.9178770643059181
  0.4483729649684502  0.3091723657722135  0.9709741360341211
  0.6740634197643719  0.0486734063294241  0.6830295407886865
  0.5532422098501801  0.9710167998030184  0.4748421930466841
  0.4823972024973532  0.7333986769337376  0.5229689921265605
  0.2497172955741201  0.6981579936292883  0.9617300216688837
  0.3323902628109941  0.8158088988254308  0.6546450854350975
  0.8457563175086836  0.4291952912909682  0.2053418853396186
  0.2791282691700728  0.4816870227080939  0.4545842802496067
  0.3235755505662917  0.5715103527385770  0.7508490062346458
  0.8320238043732006  0.0284773961538617  0.1754826707090995
  0.3366048918841573  0.8859446464700899  0.4155423573344463
  0.1992246397850088  0.0291157923974708  0.9746558857868369
  0.1097945351518645  0.3305065522380878  0.0675823541286700
  0.2876862381029118  0.5868821061060644  0.1399713073630418
  0.7977847107182396  0.9674878644316676  0.4747137870128812
  0.3246354932382823  0.4902663994911070  0.9420358809846880
  0.7768391670715264  0.8365046602973519  0.6736113565873353
 
  0.00000000E+00  0.00000000E+00  0.00000000E+00
  0.00000000E+00  0.00000000E+00  0.00000000E+00
  0.00000000E+00  0.00000000E+00  0.00000000E+00
  0.00000000E+00  0.00000000E+00  0.00000000E+00
  0.00000000E+00  0.00000000E+00  0.00000000E+00
  0.00000000E+00  0.00000000E+00  0.00000000E+00
  0.00000000E+00  0.00000000E+00  0.00000000E+00
  0.00000000E+00  0.00000000E+00  0.00000000E+00
  0.00000000E+00  0.00000000E+00  0.00000000E+00
  0.00000000E+00  0.00000000E+00  0.00000000E+00
  0.00000000E+00  0.00000000E+00  0.00000000E+00
  0.00000000E+00  0.00000000E+00  0.00000000E+00
  0.00000000E+00  0.00000000E+00  0.00000000E+00
  0.00000000E+00  0.00000000E+00  0.00000000E+00
  0.00000000E+00  0.00000000E+00  0.00000000E+00
  0.00000000E+00  0.00000000E+00  0.00000000E+00
  0.00000000E+00  0.00000000E+00  0.00000000E+00
  0.00000000E+00  0.00000000E+00  0.00000000E+00
  0.00000000E+00  0.00000000E+00  0.00000000E+00
  0.00000000E+00  0.00000000E+00  0.00000000E+00
  0.00000000E+00  0.00000000E+00  0.00000000E+00
  0.00000000E+00  0.00000000E+00  0.00000000E+00
  0.00000000E+00  0.00000000E+00  0.00000000E+00
  0.00000000E+00  0.00000000E+00  0.00000000E+00
  0.00000000E+00  0.00000000E+00  0.00000000E+00
  0.00000000E+00  0.00000000E+00  0.00000000E+00
  0.00000000E+00  0.00000000E+00  0.00000000E+00
  0.00000000E+00  0.00000000E+00  0.00000000E+00
  0.00000000E+00  0.00000000E+00  0.00000000E+00
  0.00000000E+00  0.00000000E+00  0.00000000E+00
  0.00000000E+00  0.00000000E+00  0.00000000E+00
  0.00000000E+00  0.00000000E+00  0.00000000E+00
  0.00000000E+00  0.00000000E+00  0.00000000E+00
  0.00000000E+00  0.00000000E+00  0.00000000E+00
  0.00000000E+00  0.00000000E+00  0.00000000E+00
  0.00000000E+00  0.00000000E+00  0.00000000E+00
  0.00000000E+00  0.00000000E+00  0.00000000E+00
  0.00000000E+00  0.00000000E+00  0.00000000E+00
  0.00000000E+00  0.00000000E+00  0.00000000E+00
  0.00000000E+00  0.00000000E+00  0.00000000E+00
  0.00000000E+00  0.00000000E+00  0.00000000E+00
  0.00000000E+00  0.00000000E+00  0.00000000E+00
  0.00000000E+00  0.00000000E+00  0.00000000E+00
  0.00000000E+00  0.00000000E+00  0.00000000E+00
  0.00000000E+00  0.00000000E+00  0.00000000E+00
  0.00000000E+00  0.00000000E+00  0.00000000E+00
  0.00000000E+00  0.00000000E+00  0.00000000E+00
  0.00000000E+00  0.00000000E+00  0.00000000E+00
  0.00000000E+00  0.00000000E+00  0.00000000E+00
  0.00000000E+00  0.00000000E+00  0.00000000E+00
  0.00000000E+00  0.00000000E+00  0.00000000E+00
  0.00000000E+00  0.00000000E+00  0.00000000E+00
  0.00000000E+00  0.00000000E+00  0.00000000E+00
  0.00000000E+00  0.00000000E+00  0.00000000E+00
  0.00000000E+00  0.00000000E+00  0.00000000E+00
  0.00000000E+00  0.00000000E+00  0.00000000E+00
  0.00000000E+00  0.00000000E+00  0.00000000E+00
  0.00000000E+00  0.00000000E+00  0.00000000E+00
  0.00000000E+00  0.00000000E+00  0.00000000E+00
  0.00000000E+00  0.00000000E+00  0.00000000E+00
  0.00000000E+00  0.00000000E+00  0.00000000E+00
  0.00000000E+00  0.00000000E+00  0.00000000E+00
  0.00000000E+00  0.00000000E+00  0.00000000E+00
  0.00000000E+00  0.00000000E+00  0.00000000E+00
  0.00000000E+00  0.00000000E+00  0.00000000E+00
  0.00000000E+00  0.00000000E+00  0.00000000E+00
  0.00000000E+00  0.00000000E+00  0.00000000E+00
  0.00000000E+00  0.00000000E+00  0.00000000E+00
  0.00000000E+00  0.00000000E+00  0.00000000E+00
  0.00000000E+00  0.00000000E+00  0.00000000E+00
  0.00000000E+00  0.00000000E+00  0.00000000E+00
  0.00000000E+00  0.00000000E+00  0.00000000E+00
  0.00000000E+00  0.00000000E+00  0.00000000E+00
  0.00000000E+00  0.00000000E+00  0.00000000E+00
  0.00000000E+00  0.00000000E+00  0.00000000E+00
  0.00000000E+00  0.00000000E+00  0.00000000E+00
  0.00000000E+00  0.00000000E+00  0.00000000E+00
  0.00000000E+00  0.00000000E+00  0.00000000E+00
  0.00000000E+00  0.00000000E+00  0.00000000E+00
  0.00000000E+00  0.00000000E+00  0.00000000E+00
  0.00000000E+00  0.00000000E+00  0.00000000E+00
  0.00000000E+00  0.00000000E+00  0.00000000E+00
  0.00000000E+00  0.00000000E+00  0.00000000E+00
  0.00000000E+00  0.00000000E+00  0.00000000E+00
  0.00000000E+00  0.00000000E+00  0.00000000E+00
  0.00000000E+00  0.00000000E+00  0.00000000E+00
  0.00000000E+00  0.00000000E+00  0.00000000E+00
  0.00000000E+00  0.00000000E+00  0.00000000E+00
  0.00000000E+00  0.00000000E+00  0.00000000E+00
  0.00000000E+00  0.00000000E+00  0.00000000E+00
  0.00000000E+00  0.00000000E+00  0.00000000E+00
  0.00000000E+00  0.00000000E+00  0.00000000E+00
  0.00000000E+00  0.00000000E+00  0.00000000E+00
  0.00000000E+00  0.00000000E+00  0.00000000E+00
  0.00000000E+00  0.00000000E+00  0.00000000E+00
  0.00000000E+00  0.00000000E+00  0.00000000E+00
  0.00000000E+00  0.00000000E+00  0.00000000E+00
  0.00000000E+00  0.00000000E+00  0.00000000E+00
  0.00000000E+00  0.00000000E+00  0.00000000E+00
  0.00000000E+00  0.00000000E+00  0.00000000E+00
  0.00000000E+00  0.00000000E+00  0.00000000E+00
  0.00000000E+00  0.00000000E+00  0.00000000E+00
  0.00000000E+00  0.00000000E+00  0.00000000E+00
  0.00000000E+00  0.00000000E+00  0.00000000E+00
  0.00000000E+00  0.00000000E+00  0.00000000E+00
  0.00000000E+00  0.00000000E+00  0.00000000E+00
  0.00000000E+00  0.00000000E+00  0.00000000E+00
  0.00000000E+00  0.00000000E+00  0.00000000E+00
  0.00000000E+00  0.00000000E+00  0.00000000E+00
  0.00000000E+00  0.00000000E+00  0.00000000E+00
  0.00000000E+00  0.00000000E+00  0.00000000E+00
  0.00000000E+00  0.00000000E+00  0.00000000E+00
  0.00000000E+00  0.00000000E+00  0.00000000E+00
  0.00000000E+00  0.00000000E+00  0.00000000E+00
  0.00000000E+00  0.00000000E+00  0.00000000E+00
  0.00000000E+00  0.00000000E+00  0.00000000E+00
  0.00000000E+00  0.00000000E+00  0.00000000E+00
  0.00000000E+00  0.00000000E+00  0.00000000E+00
  0.00000000E+00  0.00000000E+00  0.00000000E+00
  0.00000000E+00  0.00000000E+00  0.00000000E+00
  0.00000000E+00  0.00000000E+00  0.00000000E+00
  0.00000000E+00  0.00000000E+00  0.00000000E+00
  0.00000000E+00  0.00000000E+00  0.00000000E+00
  0.00000000E+00  0.00000000E+00  0.00000000E+00
  0.00000000E+00  0.00000000E+00  0.00000000E+00
  0.00000000E+00  0.00000000E+00  0.00000000E+00
  0.00000000E+00  0.00000000E+00  0.00000000E+00
  0.00000000E+00  0.00000000E+00  0.00000000E+00
  0.00000000E+00  0.00000000E+00  0.00000000E+00
  0.00000000E+00  0.00000000E+00  0.00000000E+00
  0.00000000E+00  0.00000000E+00  0.00000000E+00
  0.00000000E+00  0.00000000E+00  0.00000000E+00
  0.00000000E+00  0.00000000E+00  0.00000000E+00
  0.00000000E+00  0.00000000E+00  0.00000000E+00
  0.00000000E+00  0.00000000E+00  0.00000000E+00
  0.00000000E+00  0.00000000E+00  0.00000000E+00
  0.00000000E+00  0.00000000E+00  0.00000000E+00
  0.00000000E+00  0.00000000E+00  0.00000000E+00
  0.00000000E+00  0.00000000E+00  0.00000000E+00
  0.00000000E+00  0.00000000E+00  0.00000000E+00
  0.00000000E+00  0.00000000E+00  0.00000000E+00
  0.00000000E+00  0.00000000E+00  0.00000000E+00
  0.00000000E+00  0.00000000E+00  0.00000000E+00
  0.00000000E+00  0.00000000E+00  0.00000000E+00
  0.00000000E+00  0.00000000E+00  0.00000000E+00
  0.00000000E+00  0.00000000E+00  0.00000000E+00
  0.00000000E+00  0.00000000E+00  0.00000000E+00
  0.00000000E+00  0.00000000E+00  0.00000000E+00
  0.00000000E+00  0.00000000E+00  0.00000000E+00
  0.00000000E+00  0.00000000E+00  0.00000000E+00
  0.00000000E+00  0.00000000E+00  0.00000000E+00
  0.00000000E+00  0.00000000E+00  0.00000000E+00
  0.00000000E+00  0.00000000E+00  0.00000000E+00
  0.00000000E+00  0.00000000E+00  0.00000000E+00
  0.00000000E+00  0.00000000E+00  0.00000000E+00
  0.00000000E+00  0.00000000E+00  0.00000000E+00
  0.00000000E+00  0.00000000E+00  0.00000000E+00
  0.00000000E+00  0.00000000E+00  0.00000000E+00
  0.00000000E+00  0.00000000E+00  0.00000000E+00
  0.00000000E+00  0.00000000E+00  0.00000000E+00
  0.00000000E+00  0.00000000E+00  0.00000000E+00
  0.00000000E+00  0.00000000E+00  0.00000000E+00
  0.00000000E+00  0.00000000E+00  0.00000000E+00
  0.00000000E+00  0.00000000E+00  0.00000000E+00
  0.00000000E+00  0.00000000E+00  0.00000000E+00
  0.00000000E+00  0.00000000E+00  0.00000000E+00
  0.00000000E+00  0.00000000E+00  0.00000000E+00
  0.00000000E+00  0.00000000E+00  0.00000000E+00
  0.00000000E+00  0.00000000E+00  0.00000000E+00
  0.00000000E+00  0.00000000E+00  0.00000000E+00
  0.00000000E+00  0.00000000E+00  0.00000000E+00
  0.00000000E+00  0.00000000E+00  0.00000000E+00
  0.00000000E+00  0.00000000E+00  0.00000000E+00
  0.00000000E+00  0.00000000E+00  0.00000000E+00
  0.00000000E+00  0.00000000E+00  0.00000000E+00
  0.00000000E+00  0.00000000E+00  0.00000000E+00
  0.00000000E+00  0.00000000E+00  0.00000000E+00
  0.00000000E+00  0.00000000E+00  0.00000000E+00
  0.00000000E+00  0.00000000E+00  0.00000000E+00
  0.00000000E+00  0.00000000E+00  0.00000000E+00
  0.00000000E+00  0.00000000E+00  0.00000000E+00
  0.00000000E+00  0.00000000E+00  0.00000000E+00
  0.00000000E+00  0.00000000E+00  0.00000000E+00
  0.00000000E+00  0.00000000E+00  0.00000000E+00
  0.00000000E+00  0.00000000E+00  0.00000000E+00
  0.00000000E+00  0.00000000E+00  0.00000000E+00
  0.00000000E+00  0.00000000E+00  0.00000000E+00
  0.00000000E+00  0.00000000E+00  0.00000000E+00
  0.00000000E+00  0.00000000E+00  0.00000000E+00
  0.00000000E+00  0.00000000E+00  0.00000000E+00
  0.00000000E+00  0.00000000E+00  0.00000000E+00
  0.00000000E+00  0.00000000E+00  0.00000000E+00
  0.00000000E+00  0.00000000E+00  0.00000000E+00
  0.00000000E+00  0.00000000E+00  0.00000000E+00
  0.00000000E+00  0.00000000E+00  0.00000000E+00
  0.00000000E+00  0.00000000E+00  0.00000000E+00
  0.00000000E+00  0.00000000E+00  0.00000000E+00
  0.00000000E+00  0.00000000E+00  0.00000000E+00
  0.00000000E+00  0.00000000E+00  0.00000000E+00
  0.00000000E+00  0.00000000E+00  0.00000000E+00
  0.00000000E+00  0.00000000E+00  0.00000000E+00
  0.00000000E+00  0.00000000E+00  0.00000000E+00
  0.00000000E+00  0.00000000E+00  0.00000000E+00
  0.00000000E+00  0.00000000E+00  0.00000000E+00
  0.00000000E+00  0.00000000E+00  0.00000000E+00
  0.00000000E+00  0.00000000E+00  0.00000000E+00
  0.00000000E+00  0.00000000E+00  0.00000000E+00
  0.00000000E+00  0.00000000E+00  0.00000000E+00
  0.00000000E+00  0.00000000E+00  0.00000000E+00
  0.00000000E+00  0.00000000E+00  0.00000000E+00
  0.00000000E+00  0.00000000E+00  0.00000000E+00
  0.00000000E+00  0.00000000E+00  0.00000000E+00
  0.00000000E+00  0.00000000E+00  0.00000000E+00
  0.00000000E+00  0.00000000E+00  0.00000000E+00
  0.00000000E+00  0.00000000E+00  0.00000000E+00
  0.00000000E+00  0.00000000E+00  0.00000000E+00
