 &control
    calculation = 'scf'
    restart_mode='from_scratch',
     prefix='fullerene',
     pseudo_dir = './'
     outdir='./'
     wf_collect = .true.
 /
 &system    
    ibrav = 1,
    celldm(1) = 47.2431,
    nat = 60,
    ntyp = 1,
    ecutwfc = 40,
    nbnd = 240,
    occupations='smearing', smearing='gaussian', degauss=0.02,
    nosym = .TRUE., noinv = .TRUE.
 /
 &electrons
    mixing_beta = 0.7 
    conv_thr =  1.0d-8
    electron_maxstep = 200
 /
ATOMIC_SPECIES
 C 12.011 C.pbesol-n-kjpaw_psl.0.1.UPF
ATOMIC_POSITIONS {crystal}
C 0.55702 0.50062 0.36989
C 0.52904 0.54907 0.36989
C 0.47095 0.54907 0.36989
C 0.44297 0.50061 0.36989
C 0.52797 0.45031 0.36989
C 0.47202 0.45031 0.3699
C 0.55703 0.41281 0.40343
C 0.44297 0.41281 0.40343
C 0.54699 0.59297 0.40343
C 0.60402 0.49422 0.40344
C 0.45299 0.59297 0.40344
C 0.39598 0.49421 0.40345
C 0.49999 0.62011 0.42416
C 0.60402 0.43995 0.42417
C 0.39597 0.43995 0.42417
C 0.52905 0.37669 0.43574
C 0.47095 0.37669 0.43574
C 0.59226 0.58681 0.43574
C 0.62131 0.5365 0.43574
C 0.40773 0.5868 0.43575
C 0.37868 0.53649 0.43576
C 0.62133 0.42996 0.47644
C 0.49999 0.64007 0.47644
C 0.37867 0.42996 0.47645
C 0.54701 0.36632 0.49001
C 0.63928 0.52614 0.49001
C 0.59228 0.60755 0.49001
C 0.453 0.36632 0.49001
C 0.40772 0.60754 0.49002
C 0.36072 0.52613 0.49002
C 0.63928 0.47387 0.50998
C 0.59228 0.39246 0.50998
C 0.547 0.63368 0.50999
C 0.36072 0.47386 0.50999
C 0.40772 0.39245 0.50999
C 0.45299 0.63368 0.50999
C 0.62132 0.57004 0.52355
C 0.5 0.35993 0.52356
C 0.37867 0.57004 0.52357
C 0.62132 0.46351 0.56424
C 0.59227 0.4132 0.56425
C 0.37869 0.4635 0.56425
C 0.40774 0.41319 0.56426
C 0.52905 0.62331 0.56426
C 0.47095 0.62331 0.56426
C 0.60402 0.56006 0.57583
C 0.39598 0.56005 0.57583
C 0.50001 0.37989 0.57583
C 0.60402 0.50579 0.59656
C 0.54701 0.40703 0.59656
C 0.39598 0.50578 0.59656
C 0.45301 0.40703 0.59656
C 0.55703 0.58719 0.59657
C 0.44297 0.58719 0.59657
C 0.52798 0.54969 0.6301
C 0.47203 0.54969 0.63011
C 0.52906 0.45093 0.63011
C 0.55703 0.49939 0.63011
C 0.47096 0.45093 0.63011
C 0.44298 0.49939 0.63011
K_POINTS {automatic} 
 1 1 1 0 0 0
