PREC = Accurate
LREAL = .FALSE.
ISMEAR = -5
NBANDS = 13

NSW = 0 ; ISIF = 0
EDIFF = 1.0d-7

NEDOS = 801
ISYM = -1
