Li  C 
 1.0000000000000000
    14.2729999999999997    0.0000000000000000    0.0000000000000000
     0.0000000000000000   14.2729999999999997    0.0000000000000000
     0.0000000000000000    0.0000000000000000   14.2729999999999997
 Li  C  
  12 194
Cartesian
  1.9514045600000001  8.6458697499999992  9.9771124599999990
  9.5479233499999996 12.1152078600000017 11.1497821399999992
  9.6229993299999990 10.1673715500000021  5.5056670200000006
  8.4546115500000028 13.5824722599999994  3.9941563199999996
  2.2688360799999998  5.0345152900000008 11.0223242500000005
 10.9112803099999987  8.2268144699999990 13.2851656700000014
  5.9679694899999998  3.8818278100000008  2.8129228400000006
 13.5599209200000015  2.0528855900000007  3.3738517400000005
  8.4818729800000021  2.9154029800000001  9.9185931600000004
  3.9801687800000005  8.0523984099999986  3.2488202599999996
 13.2028104599999985  0.8636592300000001  9.6245693600000024
 12.3852530199999986  4.7327840700000010 14.0921610899999994
  8.9844253099999989  5.1160141200000000 10.6837686900000026
  3.6664482399999998  4.1617213399999997 14.1581023500000018
  0.0864943800000000  3.0621294200000007 14.2575851599999996
 10.3997359900000017  5.4255954900000001  6.5006378500000013
 12.1658770100000009  6.4070069700000012 12.2376702000000002
  8.1428892300000015  4.4032204999999998  6.8564637400000006
 11.6559027200000020  7.0128958200000007  1.1528302099999999
  2.0339025000000004  9.2851574199999991  2.4305491700000004
  7.6984280099999998  8.3105969799999997 11.3379002800000013
  8.9798579499999995  8.8792332999999992 10.9755088100000027
  2.3726007900000003  4.0588130099999997  0.4193407400000000
 14.1434011600000016  4.9531591900000009  4.4802947000000000
  0.2921683100000000  7.2088641100000013 12.9792952800000005
 10.4091561699999993  5.7040617199999994  8.9757187799999993
  3.7420951400000009  5.0534983800000006  2.0029300900000000
  9.2763081600000028  4.7063790200000000  6.0821534899999996
  5.7665774600000006  3.8471444199999998  8.1710070399999992
  5.8201012099999998  7.3531641399999996 10.1018584799999989
 12.4040933800000026  2.5745637400000003  1.3505112600000002
 10.0594676700000001  5.7929825099999999 13.6572627799999999
  6.7976589800000005  6.2435811200000009  2.6496397200000001
  5.2874328500000010  1.6686564300000002  5.1275752500000005
  9.2055140799999986  6.8851524700000004  2.7269993800000005
  2.9993282199999998  3.0656976700000005 12.0207205999999989
  4.5466641499999998  4.7982971400000007  0.8118482400000001
  6.9044210200000009  1.0786106099999999  3.3641460999999997
  5.0819016500000007 13.7864334300000024  3.8214530199999994
 11.8881244299999995 11.3734400500000010 11.2606833500000025
  4.4501786699999997 12.5181346500000021  3.5860912499999995
  7.3811392200000006  3.0577047899999998  4.8482526399999992
 12.8231486599999993  0.0121320500000000 12.7543528000000013
  9.0505092999999999  7.8490081599999995  5.3653634300000013
  8.8055846200000012  0.3706698100000000  1.8981662699999999
  8.6621409700000012  3.2519603200000002  4.1922655600000001
 11.0648577900000014  0.5346665800000001  0.6973787800000000
 11.4476596500000021  8.5114180899999994  5.2640251300000012
  0.3643896900000000  6.1819217599999998  8.0484019700000022
  5.6298421200000011  6.6994607400000010  4.7617582600000015
 13.9434364299999984  2.1095493999999997 13.2670389600000007
  5.0169594999999996  7.0704160100000006  8.9745769400000022
  7.8177502900000002  7.8397307100000004  7.5963760599999999
  5.5837403299999995  6.2324481799999996  3.4008277100000006
  2.2481402300000006  0.3114368600000000  7.8668494100000004
  4.5963341899999994  0.4354692300000000  4.8365487800000002
  1.6726528700000003 13.2848802099999990  7.6115054399999993
  4.9343188300000005  2.4516732100000005  6.2841164400000009
 12.6244685000000008  5.6666664600000001  6.2401556000000005
  3.6885713899999999  6.8875788799999995  9.4885476699999991
  9.5954524399999990  4.1254679200000002  4.7954425399999998
  5.5173708800000005  7.9657613000000005 12.4573316699999985
  1.2032138999999999  5.0365135099999998  4.0022919300000002
  7.2365537299999989  9.3332574299999997 13.5737657300000016
 11.4312456999999998  5.2573168199999998  5.5664699999999998
  3.5328529599999996  0.0218376900000000  5.7157655799999993
 12.3467159199999994 10.1341154600000003  8.6494380000000017
 13.3382612299999987  6.3273636300000007  8.5463869399999997
  4.5787783999999991  3.5509796700000007  8.8168602899999993
 10.2891202399999990  7.9669031400000012  4.6325876099999999
  9.0159686400000023  2.3878729000000005  3.1149395199999996
  4.2513557799999999  6.5941260000000010  6.7574091200000010
 11.8568665600000021 13.3128552899999981 13.1107496099999992
  8.7953080600000018 12.3609889200000023  0.7436233000000001
 10.3788974099999987 11.5512816300000001 13.2690371799999998
 13.2521950400000001 11.1260889599999988  9.1579849900000010
  5.3442393899999994  7.0255987900000010  7.5778211599999992
  8.0585357999999996 11.1753308100000002  0.4584487600000000
  9.3072805700000014  6.3109496800000002  1.4686916999999999
  0.4948449100000000 13.4184754900000023  9.7358987600000013
  3.1175086599999999  7.8641375399999998 13.2569051299999998
 10.1706543400000005  8.7180911300000012  7.3995513899999992
  0.4757190900000000  0.8439624900000001 11.3210581400000017
  6.2868283100000006  4.7093763500000012 13.3422576700000022
  6.8720213100000009 13.1074668200000026  2.1722078699999998
  4.0914981800000003 10.4559716100000024  2.2724043299999996
  3.5397040000000004  5.8389415700000011  4.4334792600000004
  1.4818228599999999 10.6209674900000000  4.9059155600000013
 13.1547104500000014  6.8914325900000000 13.2260754500000015
  5.9131611699999995  5.0543547600000007  0.4534532100000000
  1.9625375000000000 12.5381168499999998  6.4204235900000004
 14.0049530600000018  8.2435138800000001  2.3937248300000005
  4.9395998399999996  9.1568431499999985  0.2132386200000000
 11.3651617100000024  8.9423199599999990  6.6446524200000008
  3.8038972300000009  2.0560256500000000  7.0774097800000000
 11.0057675699999997  4.4116415699999996  4.4857184400000003
  9.1110268199999993  5.1328562599999996  9.2252108200000009
  1.2477456599999999 11.3244836600000021  6.1316808000000007
 11.6056617599999985  7.5134499300000002  2.5247509700000004
  0.2305089500000000 10.8627521100000024  6.9999073900000006
 13.4587253499999999  6.6006915799999994  9.9865326400000001
  8.2259580900000007  5.7284685500000005  0.7666028300000000
  2.5928331800000000 11.0173287000000020  4.1495892899999998
  8.9869944500000027  8.1598740999999997  6.7838141699999994
 10.2019122099999997  9.0323825899999992  8.7988763099999989
 13.2878775400000020  4.3546923000000008  3.4489277200000004
 14.0656133099999998  7.7550918200000005  1.0049619299999999
  7.6110772500000010  4.9444526599999996 12.7868952400000016
  8.1494548100000017  1.3171124400000003  2.7539753500000006
  2.9440917099999999 13.0161196200000013  5.5078079700000000
 10.4639644899999986  6.3610479099999999  0.6572716500000000
  2.9035563899999999 10.2575769100000009  3.0205949900000006
  8.0836562799999996  4.6724092800000001  8.3141652299999986
  7.1230833799999997  3.6620236100000003  6.1520911900000010
  6.4807983800000013  1.9926535300000001  4.4029350399999991
  2.6417895699999998  6.5106289500000010  8.6263157400000026
  4.4349065600000008  3.6229155899999999 10.2136160699999987
  8.6410169299999993  5.4034723400000013 13.7065046300000013
  2.2137423000000003  8.1029248300000027  0.0807851800000000
 10.2214662200000017  5.5758901800000009 11.2301391299999995
  4.9199031000000000 11.5969552299999989  2.5674272400000007
 12.9240587700000020  1.1930800699999999 13.5492161700000011
  0.0284032700000000 11.5253047700000000  8.2606414800000003
  6.6175337200000008  7.3551623599999996  6.9313969899999996
  2.3890147399999999  4.5786356700000006  1.7702801900000003
 10.9324043500000023  5.8779068600000013  7.7315413699999995
 11.4924768699999991  2.9288195999999997  2.4266954599999999
  6.7098800299999999  4.4393311899999999 10.4325638899999991
  4.2532112699999995  5.6749447999999996  3.1881600100000007
  6.8733058799999993  8.4534697099999985 12.5122827200000017
  2.9590783599999999  6.2724125800000010  7.2375528399999993
 11.0495856800000016 10.2677107400000001 10.8069446800000026
  5.9028846100000010  3.3849846800000005  6.8167848000000006
  6.1713597400000006 11.8531555799999992  1.8943125599999999
  6.2568550100000007 14.0972993699999982  3.0779724499999999
  3.3418802200000002 12.1852882899999990  4.4207762900000009
 11.4996133700000023 12.0398464199999999 12.4978669900000021
 12.6615783000000022  8.6134700399999993  4.5134080599999997
  0.7897250899999999  8.9996974200000004  3.0559920299999996
 12.3191690300000012  6.4217081600000006 10.7862488300000017
 13.7159248099999989 14.1214207399999996 11.6453406999999984
 13.7419016700000025 13.0433810500000025 10.6636437599999994
 12.3275901000000019  6.0941428100000010  7.5819603299999994
  0.6417140800000000  1.9662484800000002 12.2235399299999994
 12.1199179500000014  1.4454267100000002  0.4436048400000001
  1.9885143599999999  5.8225276199999998  6.2661324600000006
  9.1251570899999983  8.6248884400000012  9.5610545100000017
  5.4786910500000001  4.0927827499999996 11.0338853799999992
  3.5848066799999998  2.6898895799999996  8.3153070700000029
  9.5737574799999994 10.4164353999999992 12.9043620300000015
 13.8989046700000021  5.4582806600000007  5.7894142600000000
  3.9850216000000001  9.4963978200000003  1.1919382299999999
  1.1468355500000000  7.0738415300000002 11.7658048200000014
  7.7793559199999995  4.7925879400000007 11.3391848499999988
  1.2527412099999999  4.5729264699999996  2.6320839300000003
 11.0851254500000014  5.9459890700000013 10.2091914399999997
  3.2846454900000004  2.8867142500000007 10.6229657099999990
  2.5962586999999999  7.3211926199999988 11.9713360200000025
  0.6652645300000000  5.7932679700000005  6.7127346300000008
 12.9627386000000016 11.8395962300000015 10.3968813900000026
  6.7150183099999996  7.1784626200000003  5.5022415000000011
  4.4194917199999999  6.4338402099999996  5.3759254499999996
  7.1267943600000008  7.7936289200000006 10.1369700600000012
 13.5926060900000021  9.8790569500000025  6.4900758300000003
  6.8570346600000009  4.3431311700000004  8.9768606200000001
 10.8346342999999994  5.8654893500000007 12.4808821200000004
  0.5973250499999999  6.7357141599999997 10.3759000800000027
 10.1049985400000004  0.9465853600000000  1.6575234900000002
  7.8972509000000013  7.3233335700000017  4.7255048399999993
  6.2518594600000013  9.7321877800000021  0.2530602900000000
 11.8881244299999995  3.9196512600000002  3.4460731200000003
 10.2527240900000010  2.1733497099999997  2.4198444200000004
  0.8391096700000001  7.7148419600000011 14.2453103800000012
  1.1137221900000003  0.4009285700000000 10.0867290999999994
  3.6503197499999995  7.1297916900000002 10.9475337300000017
 12.8795270100000021  7.1940201900000007  0.3743807900000000
  2.7605409299999999  2.2184523899999999  9.4034805900000009
  2.0144912199999996  1.0199485799999999  9.1469947800000018
 12.4513370100000014  9.6141500700000009  7.2906484000000003
  7.9349316199999995  6.8353396999999996  3.3645742899999997
 11.2347064899999989  9.7738649400000028  9.4418749599999998
  2.7041625799999998  8.8448353699999984  1.2173441700000003
  0.6058888500000001  9.6034453200000005  4.3758163400000001
 12.7711949400000009  8.1140577700000005  3.1409163800000006
  4.5261110300000009  8.2777690800000023 13.4368876600000018
  1.7351686099999999  2.8256258100000000 12.6183311099999997
  5.2904301799999995  4.1611504200000002 12.4340666800000026
 13.6785295500000021  3.2815054300000002  1.2082094500000000
  5.0200995599999994  7.3931285400000011 11.2696753400000009
 13.7223476600000023  9.3262636600000022  5.1525529999999993
  6.9339661299999999  5.6655246200000011  1.3124023499999999
 10.0137940700000012 12.5178491900000015  0.0184121700000000
  8.1794281100000017 13.3775119800000013  1.5843030000000002
  0.7700283499999999 12.7101064999999984  8.5466724000000021
 10.9609503500000010 13.6003135100000012 14.1974958300000011
  9.8984682299999989  9.7747213199999994 11.6069463300000013
 14.1723753499999994  4.0795088599999998  2.3189343099999999
  1.3041240100000000  6.4502541600000001  9.0903309699999983
  3.1376335900000001  0.8189847400000001  6.8443316899999997
  2.2385773200000005  5.5326429899999994  4.8660938900000010
  3.9877334700000002  3.7647892100000000 12.8521228499999989
  7.9823179799999995  8.0140040399999997  9.0029802100000005
  8.4013732599999997 10.2086205200000020 13.6976553699999997
  6.7539835999999998 10.9114230400000025  0.9829815100000000
  1.4106005900000003  3.4345119900000003 13.8986192099999997
 10.3751864300000012  7.4733427999999993  3.2929238300000003
