Title of Simulation                     
   1.00000000000000     
     6.0157876805062296    0.0000000000000000    0.0000000000000000
    -3.0078938402531148    5.2098249550773170    0.0000000000000000
     0.0000000000000000    0.0000000000000000    4.3298054979702387
   Na   O 
     6     6
Direct
  0.6330586980629533  0.0000000000000000  0.5000000000000000
  0.0000000000000000  0.6330586980629533  0.5000000000000000
  0.3669413019370467  0.3669413019370467  0.5000000000000000
  0.0000000000000000  0.2992808470479531  0.0000000000000000
  0.7007191529520540  0.7007191529520540  0.0000000000000000
  0.2992808470479531  0.0000000000000000  0.0000000000000000
  0.6666667000000004  0.3333332999999996  0.8235978304269906
  0.3333332999999996  0.6666667000000004  0.8235978304269906
  0.0000000000000000  0.0000000000000000  0.6740940732188676
  0.0000000000000000  0.0000000000000000  0.3259059267811324
  0.6666667000000004  0.3333332999999996  0.1764021695730094
  0.3333332999999996  0.6666667000000004  0.1764021695730094
 
  0.00000000E+00  0.00000000E+00  0.00000000E+00
  0.00000000E+00  0.00000000E+00  0.00000000E+00
  0.00000000E+00  0.00000000E+00  0.00000000E+00
  0.00000000E+00  0.00000000E+00  0.00000000E+00
  0.00000000E+00  0.00000000E+00  0.00000000E+00
  0.00000000E+00  0.00000000E+00  0.00000000E+00
  0.00000000E+00  0.00000000E+00  0.00000000E+00
  0.00000000E+00  0.00000000E+00  0.00000000E+00
  0.00000000E+00  0.00000000E+00  0.00000000E+00
  0.00000000E+00  0.00000000E+00  0.00000000E+00
  0.00000000E+00  0.00000000E+00  0.00000000E+00
  0.00000000E+00  0.00000000E+00  0.00000000E+00
