Na6O6
1.0
      6.0157877       0.0000000       0.0000000
     -3.0078938       5.2098250       0.0000000
      0.0000000       0.0000000       4.3298055
  Na    O   
  6     6   
Direct
      0.6330587       0.0000000       0.5000000
      0.0000000       0.6330587       0.5000000
      0.3669413       0.3669413       0.5000000
      0.0000000       0.2992808       0.0000000
      0.7007192       0.7007192       0.0000000
      0.2992808       0.0000000       0.0000000
      0.6666667       0.3333333       0.8235978
      0.3333333       0.6666667       0.8235978
      0.0000000       0.0000000       0.6740941
      0.0000000       0.0000000       0.3259059
      0.6666667       0.3333333       0.1764022
      0.3333333       0.6666667       0.1764022
