Cs4I12
1.0
      6.7993170       0.0000000       0.0000000
      0.0000000      10.1029909       0.0000000
      0.0000000       0.0000000      10.8228544
  Cs    I   
  4     12  
Direct
      0.2500000       0.4682029       0.8233897
      0.7500000       0.5317971       0.1766103
      0.7500000       0.9682029       0.6766103
      0.2500000       0.0317971       0.3233897
      0.2500000       0.3616705       0.1637507
      0.7500000       0.6383295       0.8362493
      0.7500000       0.8616705       0.3362493
      0.2500000       0.1383295       0.6637507
      0.2500000       0.5555359       0.3722869
      0.7500000       0.4444641       0.6277131
      0.7500000       0.0555358       0.1277130
      0.2500000       0.9444641       0.8722870
      0.2500000       0.7424776       0.5722014
      0.7500000       0.2575224       0.4277986
      0.7500000       0.2424776       0.9277986
      0.2500000       0.7575224       0.0722014
