&control
 calculation = 'scf'
 restart_mode='from_scratch',
 prefix='Ti',
 pseudo_dir = './',
 outdir='./'
 wf_collect = .true.
 /
&system
ibrav= 0, celldm(1)=5.52353, nat= 2, ntyp= 1
ecutwfc = 30.0, ecutrho = 280.0, nbnd=28,
occupations='smearing', smearing='marzari-vanderbilt', degauss=0.01,
nosym = .TRUE., noinv = .TRUE.
 /
&electrons
 /
CELL_PARAMETERS {alat}
  1.00000 0.00000 0.00000
  -0.50000 0.86603 0.00000
  0.00000 0.00000 1.58336
ATOMIC_SPECIES
 Ti 47.87 Ti.pbesol-spn-kjpaw_psl.0.3.1.UPF
ATOMIC_POSITIONS {crystal}
 Ti 0.66667 0.33333 0.75000
 Ti 0.33333 0.66667 0.25000
K_POINTS {automatic}
 7 7 3 0 0 0
