Automatically generated mesh
     383
Reciprocal lattice
    0.00000000000000    0.00000000000000    0.00000000000000             1
    0.14285714285714   -0.00000000000000   -0.00000000000000             1
    0.28571428571429    0.00000000000000   -0.00000000000000             1
    0.42857142857143    0.00000000000000   -0.00000000000000             1
   -0.42857142857143   -0.00000000000000    0.00000000000000             1
   -0.28571428571429   -0.00000000000000    0.00000000000000             1
   -0.14285714285714    0.00000000000000    0.00000000000000             1
    0.00000000000000    0.14285714285714    0.00000000000000             1
    0.14285714285714    0.14285714285714    0.00000000000000             1
    0.28571428571429    0.14285714285714   -0.00000000000000             1
    0.42857142857143    0.14285714285714   -0.00000000000000             1
   -0.42857142857143    0.14285714285714    0.00000000000000             1
   -0.28571428571429    0.14285714285714    0.00000000000000             1
   -0.14285714285714    0.14285714285714    0.00000000000000             1
    0.00000000000000    0.28571428571429    0.00000000000000             1
    0.14285714285714    0.28571428571429    0.00000000000000             1
    0.28571428571429    0.28571428571429    0.00000000000000             1
    0.42857142857143    0.28571428571429   -0.00000000000000             1
   -0.42857142857143    0.28571428571429    0.00000000000000             1
   -0.28571428571429    0.28571428571429    0.00000000000000             1
   -0.14285714285714    0.28571428571429    0.00000000000000             1
    0.00000000000000    0.42857142857143    0.00000000000000             1
    0.14285714285714    0.42857142857143   -0.00000000000000             1
    0.28571428571429    0.42857142857143   -0.00000000000000             1
    0.42857142857143    0.42857142857143    0.00000000000000             1
   -0.42857142857143    0.42857142857143    0.00000000000000             1
   -0.28571428571429    0.42857142857143    0.00000000000000             1
   -0.14285714285714    0.42857142857143    0.00000000000000             1
    0.00000000000000   -0.42857142857143    0.00000000000000             1
    0.14285714285714   -0.42857142857143    0.00000000000000             1
    0.28571428571429   -0.42857142857143   -0.00000000000000             1
    0.42857142857143   -0.42857142857143   -0.00000000000000             1
   -0.42857142857143   -0.42857142857143    0.00000000000000             1
   -0.28571428571429   -0.42857142857143    0.00000000000000             1
   -0.14285714285714   -0.42857142857143    0.00000000000000             1
    0.00000000000000   -0.28571428571429   -0.00000000000000             1
    0.14285714285714   -0.28571428571429   -0.00000000000000             1
    0.28571428571429   -0.28571428571429   -0.00000000000000             1
    0.42857142857143   -0.28571428571429   -0.00000000000000             1
   -0.42857142857143   -0.28571428571429    0.00000000000000             1
   -0.28571428571429   -0.28571428571429    0.00000000000000             1
   -0.14285714285714   -0.28571428571429   -0.00000000000000             1
    0.00000000000000   -0.14285714285714    0.00000000000000             1
    0.14285714285714   -0.14285714285714   -0.00000000000000             1
    0.28571428571429   -0.14285714285714   -0.00000000000000             1
    0.42857142857143   -0.14285714285714   -0.00000000000000             1
   -0.42857142857143   -0.14285714285714    0.00000000000000             1
   -0.28571428571429   -0.14285714285714    0.00000000000000             1
   -0.14285714285714   -0.14285714285714    0.00000000000000             1
    0.00000000000000    0.00000000000000    0.14285714285714             1
    0.14285714285714   -0.00000000000000    0.14285714285714             1
    0.28571428571429    0.00000000000000    0.14285714285714             1
    0.42857142857143    0.00000000000000    0.14285714285714             1
   -0.42857142857143   -0.00000000000000    0.14285714285714             1
   -0.28571428571429    0.00000000000000    0.14285714285714             1
   -0.14285714285714    0.00000000000000    0.14285714285714             1
    0.00000000000000    0.14285714285714    0.14285714285714             1
    0.14285714285714    0.14285714285714    0.14285714285714             1
    0.28571428571429    0.14285714285714    0.14285714285714             1
    0.42857142857143    0.14285714285714    0.14285714285714             1
   -0.42857142857143    0.14285714285714    0.14285714285714             1
   -0.28571428571429    0.14285714285714    0.14285714285714             1
   -0.14285714285714    0.14285714285714    0.14285714285714             1
    0.00000000000000    0.28571428571429    0.14285714285714             1
    0.14285714285714    0.28571428571429    0.14285714285714             1
    0.28571428571429    0.28571428571429    0.14285714285714             1
    0.42857142857143    0.28571428571429    0.14285714285714             1
   -0.42857142857143    0.28571428571429    0.14285714285714             1
   -0.28571428571429    0.28571428571429    0.14285714285714             1
   -0.14285714285714    0.28571428571429    0.14285714285714             1
    0.00000000000000    0.42857142857143    0.14285714285714             1
    0.14285714285714    0.42857142857143    0.14285714285714             1
    0.28571428571429    0.42857142857143    0.14285714285714             1
    0.42857142857143    0.42857142857143    0.14285714285714             1
   -0.42857142857143    0.42857142857143    0.14285714285714             1
   -0.28571428571429    0.42857142857143    0.14285714285714             1
   -0.14285714285714    0.42857142857143    0.14285714285714             1
    0.00000000000000   -0.42857142857143    0.14285714285714             1
    0.14285714285714   -0.42857142857143    0.14285714285714             1
    0.28571428571429   -0.42857142857143    0.14285714285714             1
    0.42857142857143   -0.42857142857143    0.14285714285714             1
   -0.42857142857143   -0.42857142857143    0.14285714285714             1
   -0.28571428571429   -0.42857142857143    0.14285714285714             1
   -0.14285714285714   -0.42857142857143    0.14285714285714             1
    0.00000000000000   -0.28571428571429    0.14285714285714             1
    0.14285714285714   -0.28571428571429    0.14285714285714             1
    0.28571428571429   -0.28571428571429    0.14285714285714             1
    0.42857142857143   -0.28571428571429    0.14285714285714             1
   -0.42857142857143   -0.28571428571429    0.14285714285714             1
   -0.28571428571429   -0.28571428571429    0.14285714285714             1
   -0.14285714285714   -0.28571428571429    0.14285714285714             1
    0.00000000000000   -0.14285714285714    0.14285714285714             1
    0.14285714285714   -0.14285714285714    0.14285714285714             1
    0.28571428571429   -0.14285714285714    0.14285714285714             1
    0.42857142857143   -0.14285714285714    0.14285714285714             1
   -0.42857142857143   -0.14285714285714    0.14285714285714             1
   -0.28571428571429   -0.14285714285714    0.14285714285714             1
   -0.14285714285714   -0.14285714285714    0.14285714285714             1
    0.00000000000000    0.00000000000000    0.28571428571429             1
    0.14285714285714    0.00000000000000    0.28571428571429             1
    0.28571428571429    0.00000000000000    0.28571428571429             1
    0.42857142857143    0.00000000000000    0.28571428571429             1
   -0.42857142857143   -0.00000000000000    0.28571428571429             1
   -0.28571428571429   -0.00000000000000    0.28571428571429             1
   -0.14285714285714    0.00000000000000    0.28571428571429             1
    0.00000000000000    0.14285714285714    0.28571428571429             1
    0.14285714285714    0.14285714285714    0.28571428571429             1
    0.28571428571429    0.14285714285714    0.28571428571429             1
    0.42857142857143    0.14285714285714    0.28571428571429             1
   -0.42857142857143    0.14285714285714    0.28571428571429             1
   -0.28571428571429    0.14285714285714    0.28571428571429             1
   -0.14285714285714    0.14285714285714    0.28571428571429             1
    0.00000000000000    0.28571428571429    0.28571428571429             1
    0.14285714285714    0.28571428571429    0.28571428571429             1
    0.28571428571429    0.28571428571429    0.28571428571429             1
    0.42857142857143    0.28571428571429    0.28571428571429             1
   -0.42857142857143    0.28571428571429    0.28571428571429             1
   -0.28571428571429    0.28571428571429    0.28571428571429             1
   -0.14285714285714    0.28571428571429    0.28571428571429             1
    0.00000000000000    0.42857142857143    0.28571428571429             1
    0.14285714285714    0.42857142857143    0.28571428571429             1
    0.28571428571429    0.42857142857143    0.28571428571429             1
    0.42857142857143    0.42857142857143    0.28571428571429             1
   -0.42857142857143    0.42857142857143    0.28571428571429             1
   -0.28571428571429    0.42857142857143    0.28571428571429             1
   -0.14285714285714    0.42857142857143    0.28571428571429             1
    0.00000000000000   -0.42857142857143    0.28571428571429             1
    0.14285714285714   -0.42857142857143    0.28571428571429             1
    0.28571428571429   -0.42857142857143    0.28571428571429             1
    0.42857142857143   -0.42857142857143    0.28571428571429             1
   -0.42857142857143   -0.42857142857143    0.28571428571429             1
   -0.28571428571429   -0.42857142857143    0.28571428571429             1
   -0.14285714285714   -0.42857142857143    0.28571428571429             1
    0.00000000000000   -0.28571428571429    0.28571428571429             1
    0.14285714285714   -0.28571428571429    0.28571428571429             1
    0.28571428571429   -0.28571428571429    0.28571428571429             1
    0.42857142857143   -0.28571428571429    0.28571428571429             1
   -0.42857142857143   -0.28571428571429    0.28571428571429             1
   -0.28571428571429   -0.28571428571429    0.28571428571429             1
   -0.14285714285714   -0.28571428571429    0.28571428571429             1
    0.00000000000000   -0.14285714285714    0.28571428571429             1
    0.14285714285714   -0.14285714285714    0.28571428571429             1
    0.28571428571429   -0.14285714285714    0.28571428571429             1
    0.42857142857143   -0.14285714285714    0.28571428571429             1
   -0.42857142857143   -0.14285714285714    0.28571428571429             1
   -0.28571428571429   -0.14285714285714    0.28571428571429             1
   -0.14285714285714   -0.14285714285714    0.28571428571429             1
    0.00000000000000    0.00000000000000    0.42857142857143             1
    0.14285714285714   -0.00000000000000    0.42857142857143             1
    0.28571428571429    0.00000000000000    0.42857142857143             1
    0.42857142857143    0.00000000000000    0.42857142857143             1
   -0.42857142857143   -0.00000000000000    0.42857142857143             1
   -0.28571428571429   -0.00000000000000    0.42857142857143             1
   -0.14285714285714    0.00000000000000    0.42857142857143             1
    0.00000000000000    0.14285714285714    0.42857142857143             1
    0.14285714285714    0.14285714285714    0.42857142857143             1
    0.28571428571429    0.14285714285714    0.42857142857143             1
    0.42857142857143    0.14285714285714    0.42857142857143             1
   -0.42857142857143    0.14285714285714    0.42857142857143             1
   -0.28571428571429    0.14285714285714    0.42857142857143             1
   -0.14285714285714    0.14285714285714    0.42857142857143             1
    0.00000000000000    0.28571428571429    0.42857142857143             1
    0.14285714285714    0.28571428571429    0.42857142857143             1
    0.28571428571429    0.28571428571429    0.42857142857143             1
    0.42857142857143    0.28571428571429    0.42857142857143             1
   -0.42857142857143    0.28571428571429    0.42857142857143             1
   -0.28571428571429    0.28571428571429    0.42857142857143             1
   -0.14285714285714    0.28571428571429    0.42857142857143             1
    0.00000000000000    0.42857142857143    0.42857142857143             1
    0.14285714285714    0.42857142857143    0.42857142857143             1
    0.28571428571429    0.42857142857143    0.42857142857143             1
    0.42857142857143    0.42857142857143    0.42857142857143             1
   -0.42857142857143    0.42857142857143    0.42857142857143             1
   -0.28571428571429    0.42857142857143    0.42857142857143             1
   -0.14285714285714    0.42857142857143    0.42857142857143             1
    0.00000000000000   -0.42857142857143    0.42857142857143             1
    0.14285714285714   -0.42857142857143    0.42857142857143             1
    0.28571428571429   -0.42857142857143    0.42857142857143             1
    0.42857142857143   -0.42857142857143    0.42857142857143             1
   -0.42857142857143   -0.42857142857143    0.42857142857143             1
   -0.28571428571429   -0.42857142857143    0.42857142857143             1
   -0.14285714285714   -0.42857142857143    0.42857142857143             1
    0.00000000000000   -0.28571428571429    0.42857142857143             1
    0.14285714285714   -0.28571428571429    0.42857142857143             1
    0.28571428571429   -0.28571428571429    0.42857142857143             1
    0.42857142857143   -0.28571428571429    0.42857142857143             1
   -0.42857142857143   -0.28571428571429    0.42857142857143             1
   -0.28571428571429   -0.28571428571429    0.42857142857143             1
   -0.14285714285714   -0.28571428571429    0.42857142857143             1
    0.00000000000000   -0.14285714285714    0.42857142857143             1
    0.14285714285714   -0.14285714285714    0.42857142857143             1
    0.28571428571429   -0.14285714285714    0.42857142857143             1
    0.42857142857143   -0.14285714285714    0.42857142857143             1
   -0.42857142857143   -0.14285714285714    0.42857142857143             1
   -0.28571428571429   -0.14285714285714    0.42857142857143             1
   -0.14285714285714   -0.14285714285714    0.42857142857143             1
    0.00000000000000   -0.00000000000000   -0.42857142857143             1
    0.14285714285714   -0.00000000000000   -0.42857142857143             1
    0.28571428571429    0.00000000000000   -0.42857142857143             1
    0.42857142857143    0.00000000000000   -0.42857142857143             1
   -0.42857142857143   -0.00000000000000   -0.42857142857143             1
   -0.28571428571429   -0.00000000000000   -0.42857142857143             1
   -0.14285714285714    0.00000000000000   -0.42857142857143             1
    0.00000000000000    0.14285714285714   -0.42857142857143             1
    0.14285714285714    0.14285714285714   -0.42857142857143             1
    0.28571428571429    0.14285714285714   -0.42857142857143             1
    0.42857142857143    0.14285714285714   -0.42857142857143             1
   -0.42857142857143    0.14285714285714   -0.42857142857143             1
   -0.28571428571429    0.14285714285714   -0.42857142857143             1
   -0.14285714285714    0.14285714285714   -0.42857142857143             1
    0.00000000000000    0.28571428571429   -0.42857142857143             1
    0.14285714285714    0.28571428571429   -0.42857142857143             1
    0.28571428571429    0.28571428571429   -0.42857142857143             1
    0.42857142857143    0.28571428571429   -0.42857142857143             1
   -0.42857142857143    0.28571428571429   -0.42857142857143             1
   -0.28571428571429    0.28571428571429   -0.42857142857143             1
   -0.14285714285714    0.28571428571429   -0.42857142857143             1
    0.00000000000000    0.42857142857143   -0.42857142857143             1
    0.14285714285714    0.42857142857143   -0.42857142857143             1
    0.28571428571429    0.42857142857143   -0.42857142857143             1
    0.42857142857143    0.42857142857143   -0.42857142857143             1
   -0.42857142857143    0.42857142857143   -0.42857142857143             1
   -0.28571428571429    0.42857142857143   -0.42857142857143             1
   -0.14285714285714    0.42857142857143   -0.42857142857143             1
    0.00000000000000   -0.42857142857143   -0.42857142857143             1
    0.14285714285714   -0.42857142857143   -0.42857142857143             1
    0.28571428571429   -0.42857142857143   -0.42857142857143             1
    0.42857142857143   -0.42857142857143   -0.42857142857143             1
   -0.42857142857143   -0.42857142857143   -0.42857142857143             1
   -0.28571428571429   -0.42857142857143   -0.42857142857143             1
   -0.14285714285714   -0.42857142857143   -0.42857142857143             1
    0.00000000000000   -0.28571428571429   -0.42857142857143             1
    0.14285714285714   -0.28571428571429   -0.42857142857143             1
    0.28571428571429   -0.28571428571429   -0.42857142857143             1
    0.42857142857143   -0.28571428571429   -0.42857142857143             1
   -0.42857142857143   -0.28571428571429   -0.42857142857143             1
   -0.28571428571429   -0.28571428571429   -0.42857142857143             1
   -0.14285714285714   -0.28571428571429   -0.42857142857143             1
    0.00000000000000   -0.14285714285714   -0.42857142857143             1
    0.14285714285714   -0.14285714285714   -0.42857142857143             1
    0.28571428571429   -0.14285714285714   -0.42857142857143             1
    0.42857142857143   -0.14285714285714   -0.42857142857143             1
   -0.42857142857143   -0.14285714285714   -0.42857142857143             1
   -0.28571428571429   -0.14285714285714   -0.42857142857143             1
   -0.14285714285714   -0.14285714285714   -0.42857142857143             1
    0.00000000000000    0.00000000000000   -0.28571428571429             1
    0.14285714285714   -0.00000000000000   -0.28571428571429             1
    0.28571428571429    0.00000000000000   -0.28571428571429             1
    0.42857142857143    0.00000000000000   -0.28571428571429             1
   -0.42857142857143   -0.00000000000000   -0.28571428571429             1
   -0.28571428571429   -0.00000000000000   -0.28571428571429             1
   -0.14285714285714   -0.00000000000000   -0.28571428571429             1
    0.00000000000000    0.14285714285714   -0.28571428571429             1
    0.14285714285714    0.14285714285714   -0.28571428571429             1
    0.28571428571429    0.14285714285714   -0.28571428571429             1
    0.42857142857143    0.14285714285714   -0.28571428571429             1
   -0.42857142857143    0.14285714285714   -0.28571428571429             1
   -0.28571428571429    0.14285714285714   -0.28571428571429             1
   -0.14285714285714    0.14285714285714   -0.28571428571429             1
    0.00000000000000    0.28571428571429   -0.28571428571429             1
    0.14285714285714    0.28571428571429   -0.28571428571429             1
    0.28571428571429    0.28571428571429   -0.28571428571429             1
    0.42857142857143    0.28571428571429   -0.28571428571429             1
   -0.42857142857143    0.28571428571429   -0.28571428571429             1
   -0.28571428571429    0.28571428571429   -0.28571428571429             1
   -0.14285714285714    0.28571428571429   -0.28571428571429             1
    0.00000000000000    0.42857142857143   -0.28571428571429             1
    0.14285714285714    0.42857142857143   -0.28571428571429             1
    0.28571428571429    0.42857142857143   -0.28571428571429             1
    0.42857142857143    0.42857142857143   -0.28571428571429             1
   -0.42857142857143    0.42857142857143   -0.28571428571429             1
   -0.28571428571429    0.42857142857143   -0.28571428571429             1
   -0.14285714285714    0.42857142857143   -0.28571428571429             1
    0.00000000000000   -0.42857142857143   -0.28571428571429             1
    0.14285714285714   -0.42857142857143   -0.28571428571429             1
    0.28571428571429   -0.42857142857143   -0.28571428571429             1
    0.42857142857143   -0.42857142857143   -0.28571428571429             1
   -0.42857142857143   -0.42857142857143   -0.28571428571429             1
   -0.28571428571429   -0.42857142857143   -0.28571428571429             1
   -0.14285714285714   -0.42857142857143   -0.28571428571429             1
    0.00000000000000   -0.28571428571429   -0.28571428571429             1
    0.14285714285714   -0.28571428571429   -0.28571428571429             1
    0.28571428571429   -0.28571428571429   -0.28571428571429             1
    0.42857142857143   -0.28571428571429   -0.28571428571429             1
   -0.42857142857143   -0.28571428571429   -0.28571428571429             1
   -0.28571428571429   -0.28571428571429   -0.28571428571429             1
   -0.14285714285714   -0.28571428571429   -0.28571428571429             1
    0.00000000000000   -0.14285714285714   -0.28571428571429             1
    0.14285714285714   -0.14285714285714   -0.28571428571429             1
    0.28571428571429   -0.14285714285714   -0.28571428571429             1
    0.42857142857143   -0.14285714285714   -0.28571428571429             1
   -0.42857142857143   -0.14285714285714   -0.28571428571429             1
   -0.28571428571429   -0.14285714285714   -0.28571428571429             1
   -0.14285714285714   -0.14285714285714   -0.28571428571429             1
    0.00000000000000   -0.00000000000000   -0.14285714285714             1
    0.14285714285714   -0.00000000000000   -0.14285714285714             1
    0.28571428571429   -0.00000000000000   -0.14285714285714             1
    0.42857142857143    0.00000000000000   -0.14285714285714             1
   -0.42857142857143   -0.00000000000000   -0.14285714285714             1
   -0.28571428571429   -0.00000000000000   -0.14285714285714             1
   -0.14285714285714    0.00000000000000   -0.14285714285714             1
    0.00000000000000    0.14285714285714   -0.14285714285714             1
    0.14285714285714    0.14285714285714   -0.14285714285714             1
    0.28571428571429    0.14285714285714   -0.14285714285714             1
    0.42857142857143    0.14285714285714   -0.14285714285714             1
   -0.42857142857143    0.14285714285714   -0.14285714285714             1
   -0.28571428571429    0.14285714285714   -0.14285714285714             1
   -0.14285714285714    0.14285714285714   -0.14285714285714             1
    0.00000000000000    0.28571428571429   -0.14285714285714             1
    0.14285714285714    0.28571428571429   -0.14285714285714             1
    0.28571428571429    0.28571428571429   -0.14285714285714             1
    0.42857142857143    0.28571428571429   -0.14285714285714             1
   -0.42857142857143    0.28571428571429   -0.14285714285714             1
   -0.28571428571429    0.28571428571429   -0.14285714285714             1
   -0.14285714285714    0.28571428571429   -0.14285714285714             1
    0.00000000000000    0.42857142857143   -0.14285714285714             1
    0.14285714285714    0.42857142857143   -0.14285714285714             1
    0.28571428571429    0.42857142857143   -0.14285714285714             1
    0.42857142857143    0.42857142857143   -0.14285714285714             1
   -0.42857142857143    0.42857142857143   -0.14285714285714             1
   -0.28571428571429    0.42857142857143   -0.14285714285714             1
   -0.14285714285714    0.42857142857143   -0.14285714285714             1
    0.00000000000000   -0.42857142857143   -0.14285714285714             1
    0.14285714285714   -0.42857142857143   -0.14285714285714             1
    0.28571428571429   -0.42857142857143   -0.14285714285714             1
    0.42857142857143   -0.42857142857143   -0.14285714285714             1
   -0.42857142857143   -0.42857142857143   -0.14285714285714             1
   -0.28571428571429   -0.42857142857143   -0.14285714285714             1
   -0.14285714285714   -0.42857142857143   -0.14285714285714             1
    0.00000000000000   -0.28571428571429   -0.14285714285714             1
    0.14285714285714   -0.28571428571429   -0.14285714285714             1
    0.28571428571429   -0.28571428571429   -0.14285714285714             1
    0.42857142857143   -0.28571428571429   -0.14285714285714             1
   -0.42857142857143   -0.28571428571429   -0.14285714285714             1
   -0.28571428571429   -0.28571428571429   -0.14285714285714             1
   -0.14285714285714   -0.28571428571429   -0.14285714285714             1
    0.00000000000000   -0.14285714285714   -0.14285714285714             1
    0.14285714285714   -0.14285714285714   -0.14285714285714             1
    0.28571428571429   -0.14285714285714   -0.14285714285714             1
    0.42857142857143   -0.14285714285714   -0.14285714285714             1
   -0.42857142857143   -0.14285714285714   -0.14285714285714             1
   -0.28571428571429   -0.14285714285714   -0.14285714285714             1
   -0.14285714285714   -0.14285714285714   -0.14285714285714             1
0.5000 0.0000 0.0000 0
0.4500 0.0000 0.0000 0
0.4000 0.0000 0.0000 0
0.3500 0.0000 0.0000 0
0.3000 0.0000 0.0000 0
0.2500 0.0000 0.0000 0
0.2000 0.0000 0.0000 0
0.1500 0.0000 0.0000 0
0.1000 0.0000 0.0000 0
0.0500 0.0000 0.0000 0
0.0000 0.0000 0.0000 0
0.0000 0.0417 0.0417 0
0.0000 0.0833 0.0833 0
0.0000 0.1250 0.1250 0
0.0000 0.1667 0.1667 0
0.0000 0.2083 0.2083 0
0.0000 0.2500 0.2500 0
0.0000 0.2917 0.2917 0
0.0000 0.3333 0.3333 0
0.0000 0.3750 0.3750 0
0.0000 0.4167 0.4167 0
0.0000 0.4583 0.4583 0
0.0000 0.5000 0.5000 0
0.0588 0.5294 0.5294 0
0.1176 0.5588 0.5588 0
0.1765 0.5882 0.5882 0
0.2353 0.6176 0.6176 0
0.2941 0.6471 0.6471 0
0.3529 0.6765 0.6765 0
0.4118 0.7059 0.7059 0
0.4706 0.7353 0.7353 0
0.5294 0.7647 0.7647 0
0.5882 0.7941 0.7941 0
0.6471 0.8235 0.8235 0
0.7059 0.8529 0.8529 0
0.7647 0.8824 0.8824 0
0.8235 0.9118 0.9118 0
0.8824 0.9412 0.9412 0
0.9412 0.9706 0.9706 0
1.0000 1.0000 1.0000 0
