Ge108Te108
1.0
     18.6246300       0.0000000       0.0000000
      0.0000000      18.6246300       0.0000000
      0.0000000       0.0000000      18.6246300
  Ge    Te  
 108   108  
Direct
      0.6608395       0.5489645       0.2368105
      0.0578904       0.6031142       0.6302303
      0.9530117       0.0879582       0.2434799
      0.3758227       0.2990714       0.3090373
      0.7894379       0.2017277       0.3819461
      0.6322802       0.6544454       0.4625969
      0.5253524       0.3819444       0.3177440
      0.5411894       0.0518933       0.6144882
      0.7338034       0.4952264       0.6297517
      0.7243115       0.7201307       0.7450025
      0.1128774       0.8206171       0.4032616
      0.5301844       0.4028176       0.5382120
      0.5780362       0.7509594       0.6347655
      0.6479553       0.3059643       0.5409172
      0.1528960       0.8002980       0.8903805
      0.8711060       0.0640543       0.3858946
      0.0535971       0.0196013       0.9622334
      0.2138981       0.2059994       0.6294995
      0.3491213       0.3447195       0.8618040
      0.6209972       0.1877420       0.2380061
      0.4399870       0.8841060       0.5349687
      0.2091795       0.7780524       0.5846014
      0.5752708       0.5660234       0.7336473
      0.9434600       0.3817214       0.0974326
      0.3469814       0.8268652       0.9457083
      0.3400689       0.0041965       0.7253782
      0.5145566       0.7104629       0.1573616
      0.1819046       0.6694723       0.2195518
      0.9385278       0.7002484       0.3743093
      0.0961424       0.1885241       0.1245479
      0.4696304       0.7942782       0.3507197
      0.0783123       0.9483756       0.4394553
      0.6710257       0.9217023       0.5974984
      0.6487049       0.3972231       0.6834947
      0.9392004       0.7974311       0.5590192
      0.7817845       0.1518883       0.1165708
      0.0629901       0.8803588       0.8049311
      0.9281452       0.4493241       0.5153465
      0.4309868       0.1818061       0.0598152
      0.6278725       0.6609127       0.0465860
      0.7986780       0.5079924       0.3670336
      0.0404835       0.5214411       0.1136090
      0.6107362       0.1354801       0.4447064
      0.6278343       0.7603264       0.8510972
      0.3939052       0.6121508       0.8724983
      0.4249942       0.4381791       0.7478652
      0.1586274       0.3391156       0.3663392
      0.8720350       0.8527368       0.4143450
      0.4349734       0.2258988       0.5109725
      0.9748731       0.4996843       0.2482272
      0.7643778       0.3179881       0.6722088
      0.7928874       0.7423093       0.5571617
      0.5280323       0.0023950       0.2961896
      0.1706454       0.5863873       0.4525009
      0.5409616       0.7830626       0.9665161
      0.0580958       0.4150351       0.7187147
      0.8814893       0.1747406       0.6748843
      0.7992418       0.7882170       0.9874892
      0.5875388       0.3671734       0.1039618
      0.2428513       0.4684814       0.6028145
      0.5724139       0.1681205       0.9990851
      0.8525046       0.5174510       0.6893107
      0.8283864       0.5543362       0.1331600
      0.0180041       0.8572412       0.9637827
      0.6969281       0.5548978       0.1045173
      0.9338863       0.2667266       0.5188273
      0.8969782       0.5416714       0.8163650
      0.5355086       0.5735387       0.1827223
      0.2424733       0.9673990       0.5146902
      0.2574435       0.3216508       0.0582921
      0.4801272       0.1640875       0.8651073
      0.9114443       0.1728838       0.0408532
      0.7259906       0.3151909       0.0624548
      0.1130657       0.8275380       0.6799692
      0.1342801       0.4282003       0.1779461
      0.2377450       0.7898867       0.4506791
      0.0541171       0.8804620       0.2040822
      0.3970820       0.3899421       0.0910967
      0.2807021       0.5215384       0.2777982
      0.3019261       0.1957906       0.2474006
      0.0823623       0.1383009       0.4728384
      0.5904759       0.3754424       0.8973024
      0.2158650       0.9515934       0.0913074
      0.2353600       0.4754330       0.0609428
      0.8272314       0.6566614       0.9464988
      0.3980569       0.3584372       0.4991185
      0.2162247       0.5327492       0.8484073
      0.3572759       0.6032984       0.4920719
      0.5964946       0.9652097       0.7817770
      0.1899261       0.0262782       0.2080999
      0.0176587       0.0516444       0.6863341
      0.3126161       0.7586565       0.1118032
      0.3919093       0.6770947       0.6338490
      0.4321171       0.0290797       0.3966974
      0.6864155       0.9039779       0.3758641
      0.6997061       0.9638921       0.0078371
      0.7411429       0.6936586       0.2695455
      0.1163963       0.6503484       0.9897206
      0.1278302       0.0755275       0.3561352
      0.9575171       0.2131675       0.8508001
      0.1396557       0.2835035       0.8208257
      0.8556367       0.3750570       0.8266930
      0.9073452       0.0141783       0.0471011
      0.3131911       0.1657276       0.5371289
      0.4698275       0.5734854       0.3925395
      0.9258139       0.0384194       0.8567546
      0.4886657       0.9800186       0.9862187
      0.3098008       0.7626550       0.7944029
      0.5710853       0.8675531       0.2706011
      0.0564202       0.7479487       0.2926710
      0.2614415       0.8961801       0.8499566
      0.3934058       0.7286211       0.2383788
      0.2681415       0.1344538       0.7499260
      0.2888370       0.2805415       0.4300943
      0.4738600       0.0602054       0.1720699
      0.0367335       0.3686995       0.2687220
      0.6079231       0.0440278       0.9232018
      0.9207884       0.5198102       0.0279331
      0.0497143       0.1667229       0.9719596
      0.0247457       0.2007897       0.7178435
      0.4967290       0.6929742       0.7475444
      0.0965092       0.4542362       0.5718757
      0.1333026       0.8333240       0.0828002
      0.2781608       0.6702099       0.3840750
      0.5062465       0.5135338       0.8544521
      0.0165244       0.3492707       0.8710887
      0.4789461       0.1699586       0.3826644
      0.8665940       0.0361266       0.7208299
      0.8635676       0.3064305       0.9944934
      0.2470649       0.2583754       0.9227441
      0.0899774       0.2795027       0.4938184
      0.9218774       0.8900077       0.8397849
      0.4815157       0.5126819       0.6259044
      0.8894308       0.3050504       0.3863371
      0.3645422       0.0253312       0.5802388
      0.7717401       0.6463801       0.4075619
      0.5483179       0.2047457       0.5964314
      0.3865213       0.0877974       0.9477050
      0.1333683       0.5504979       0.2929053
      0.6585154       0.0661609       0.3151143
      0.6542654       0.2724564       0.3966655
      0.8593058       0.6878810       0.8058817
      0.9651434       0.9473056       0.3444640
      0.5141347       0.4898920       0.0660037
      0.5604938       0.6745136       0.3328449
      0.6845930       0.6389894       0.9134078
      0.9022092       0.8625509       0.0591230
      0.7061382       0.7749008       0.0996113
      0.9425284       0.1153589       0.5082753
      0.6747956       0.2511822       0.9387547
      0.0173274       0.9204798       0.5687967
      0.1716330       0.7186109       0.7693998
      0.7136742       0.4531913       0.0050621
      0.2808529       0.1794978       0.1063338
      0.0388897       0.7167475       0.4860452
      0.2701747       0.3798257       0.2323050
      0.7635733       0.2354415       0.2370994
      0.5374393       0.8893070       0.6638725
      0.6404435       0.1029481       0.1139222
      0.8065725       0.0599645       0.9473859
      0.0663648       0.6649429       0.1243073
      0.5799170       0.8768475       0.0694479
      0.9972608       0.7416415       0.6850700
      0.5820182       0.4841628       0.4283392
      0.4714368       0.8796146       0.8790984
      0.9590855       0.2227185       0.1736933
      0.7716270       0.2169789       0.5701853
      0.8054517       0.2369002       0.7889883
      0.8747201       0.6656134       0.2093453
      0.2619815       0.0784875       0.4210105
      0.4758882       0.2964467       0.1775879
      0.0978584       0.0201407       0.8100689
      0.7101890       0.4381200       0.8110549
      0.6913676       0.6350566       0.6214010
      0.7915344       0.8370646       0.2899097
      0.3458859       0.0549499       0.2595978
      0.0386686       0.5522556       0.7729795
      0.1574006       0.2096974       0.2835561
      0.7752464       0.4395167       0.5018192
      0.4441021       0.4987212       0.2676314
      0.3304875       0.3475050       0.6265347
      0.9165685       0.5837216       0.5796586
      0.2235028       0.6350246       0.5922192
      0.4791170       0.0564798       0.7590263
      0.3520650       0.9018970       0.0756198
      0.1831899       0.8961455       0.2743040
      0.9451599       0.5415147       0.3870329
      0.0501650       0.0304590       0.1443349
      0.5323621       0.3225226       0.7686310
      0.9000173       0.3814954       0.6765361
      0.2028056       0.4065823       0.7660928
      0.1461756       0.0786360       0.5898166
      0.1123809       0.5069127       0.9792892
      0.4334932       0.7022099       0.0327213
      0.3948560       0.2309143       0.7650229
      0.6706055       0.7988755       0.4864335
      0.6465627       0.4044701       0.2345470
      0.7244266       0.8683056       0.8925022
      0.0090637       0.7125113       0.9178771
      0.4483730       0.3091724       0.9709741
      0.6740634       0.0486734       0.6830295
      0.5532422       0.9710168       0.4748422
      0.4823972       0.7333987       0.5229690
      0.2497173       0.6981580       0.9617300
      0.3323903       0.8158089       0.6546451
      0.8457563       0.4291953       0.2053419
      0.2791283       0.4816870       0.4545843
      0.3235756       0.5715104       0.7508490
      0.8320238       0.0284774       0.1754827
      0.3366049       0.8859446       0.4155424
      0.1992246       0.0291158       0.9746559
      0.1097945       0.3305066       0.0675824
      0.2876862       0.5868821       0.1399713
      0.7977847       0.9674879       0.4747138
      0.3246355       0.4902664       0.9420359
      0.7768392       0.8365047       0.6736114
