cs1 i3                                  
   1.00000000000000     
     6.7993169924400378    0.0000000000000000    0.0000000000000000
     0.0000000000000000   10.1029909113574234    0.0000000000000000
     0.0000000000000000    0.0000000000000000   10.8228544346207567
   Cs   I 
     4    12
Direct
  0.2500000000000000  0.4682029049266490  0.8233896766099349
  0.7499999830000021  0.5317970950733510  0.1766103123900677
  0.7499999830000021  0.9682028579266486  0.6766103233900651
  0.2500000000000000  0.0317970950733510  0.3233897416099367
  0.2500000000000000  0.3616704893221439  0.1637506517892859
  0.7499999830000021  0.6383295346778510  0.8362493482107141
  0.7499999830000021  0.8616705133221458  0.3362493482107141
  0.2500000000000000  0.1383294986778552  0.6637506517892859
  0.2500000000000000  0.5555358721547989  0.3722869296570437
  0.7499999830000021  0.4444641278452011  0.6277130703429563
  0.7499999830000021  0.0555358151547978  0.1277130483429545
  0.2500000000000000  0.9444640808452007  0.8722869726570437
  0.2500000000000000  0.7424775999144657  0.5722014313659542
  0.7499999830000021  0.2575224240855292  0.4277985686340458
  0.7499999830000021  0.2424776479144697  0.9277985686340458
  0.2500000000000000  0.7575224000855343  0.0722014313659542
 
  0.00000000E+00  0.00000000E+00  0.00000000E+00
  0.00000000E+00  0.00000000E+00  0.00000000E+00
  0.00000000E+00  0.00000000E+00  0.00000000E+00
  0.00000000E+00  0.00000000E+00  0.00000000E+00
  0.00000000E+00  0.00000000E+00  0.00000000E+00
  0.00000000E+00  0.00000000E+00  0.00000000E+00
  0.00000000E+00  0.00000000E+00  0.00000000E+00
  0.00000000E+00  0.00000000E+00  0.00000000E+00
  0.00000000E+00  0.00000000E+00  0.00000000E+00
  0.00000000E+00  0.00000000E+00  0.00000000E+00
  0.00000000E+00  0.00000000E+00  0.00000000E+00
  0.00000000E+00  0.00000000E+00  0.00000000E+00
  0.00000000E+00  0.00000000E+00  0.00000000E+00
  0.00000000E+00  0.00000000E+00  0.00000000E+00
  0.00000000E+00  0.00000000E+00  0.00000000E+00
  0.00000000E+00  0.00000000E+00  0.00000000E+00
