K-Points (some title)
 0
Monkhorst Pack
 9 5 5
 0 0 0
