SYSTEM = Na2O2
ISTART = 0
ENCUT = 500
EDIFF = 1E-08
EDIFFG = 1E-06
IBRION = -1
GGA = PS
LVDW = .TRUE.
IVDW = 12
NSW = 0
ISMEAR = -5
POTIM = 0.5
IALGO = 38
IWAVPR = 10
ISYM = -1
NPAR = 4
LCORR = T
NEDOS = 5001
LWAVE = .TRUE.
LREAL = .FALSE.
PREC = Accurate
NBANDS = 30
