K-Points (some title)
 0
Monkhorst Pack
 9 9 13
 0 0 0
