Na
 1.0         
4.173 0 0
0 4.173 0
0 0 4.173
Na
2
Direct          
 0 0 0        
0.5 0.5 0.5
