&CONTROL
   calculation      = 'scf'
   wf_collect       = .true.
   outdir           = './'
   prefix           = 'N4B4'
   pseudo_dir       = './'
/
&SYSTEM
   nbnd             = 32
   ecutwfc          = 60
   nosym            = .false.
   nspin            = 1
   ntyp             = 2
   nat              = 8
   ibrav            = 0
/
&ELECTRONS
   electron_maxstep = 100
   conv_thr         = 1e-10
/
&IONS
/
&CELL
/

ATOMIC_SPECIES
N 14.007 N.pbe-n.UPF
B 10.81 B.pbe-n.UPF

K_POINTS automatic
12 12 12  0 0 0

CELL_PARAMETERS angstrom
3.61600000000000 0.00000000000000 0.00000000000000
0.00000000000000 3.61600000000000 0.00000000000000
0.00000000000000 0.00000000000000 3.61600000000000

ATOMIC_POSITIONS crystal
N 0.0000000000 0.0000000000 0.0000000000 
N 0.0000000000 0.5000000000 0.5000000000 
N 0.5000000000 0.0000000000 0.5000000000 
N 0.5000000000 0.5000000000 0.0000000000 
B 0.7500000000 0.7500000000 0.2500000000 
B 0.7500000000 0.2500000000 0.7500000000 
B 0.2500000000 0.7500000000 0.7500000000 
B 0.2500000000 0.2500000000 0.2500000000 

